# 2d Lennard-Jones melt and subsequent energy minimization

units		lj
dimension	2
boundary	s s p
atom_style	atomic

lattice		sq2 0.8442
region		box block 0 20 0 20 -0.1 0.1
create_box	1 box
create_atoms	1 box
mass		1 1.0

velocity	all create 5.0 87287 loop geom

pair_style	lj/cut 2.5
pair_coeff	1 1 1.0 1.0
pair_modify	shift yes

neighbor	0.3 bin
neigh_modify	delay 0 every 1 check yes

fix		1 all nve
fix		2 all wall/reflect xlo xhi ylo yhi
fix		3 all enforce2d

dump		1 all atom 50 dump.min

thermo		100

run		500

min_style	cg
minimize	1.0e-16 1.0e-16 2000 20000
