LAMMPS (4 Jul 2026 - Development - patch_4Jul2026-854-g51def89584-modified)
  using 1 OpenMP thread(s) per MPI task
# -*- lammps -*-

units           metal
atom_style      atomic
boundary	p p p

read_data	AgCuPancake.data
Reading data file ...
  orthogonal box = (0 0 0) to (30 30 30)
  1 by 2 by 2 MPI processor grid
  reading atoms ...
  34 atoms
  read_data CPU = 0.001 seconds

pair_style	smatb
#   	         NN     p	    q	    a  	    qsi	    cutOff_Start	cutOff_End
pair_coeff	1 1 2.89	10.85	3.18	0.1031	1.1895	4.08707719	5.0056268338740553
pair_coeff	1 2 2.725	10.70	2.805	0.0977	1.2275	4.08707719	4.4340500673763259
pair_coeff	2 2 2.56	10.55	2.43	0.0894	1.2799	3.62038672	4.4340500673763259


neighbor	8.0 bin
neigh_modify	every 1 delay 0 check yes

thermo          1
minimize       1.0e-8 1.0e-10 10000 100000
Neighbor list info ...
  update: every = 1 steps, delay = 0 steps, check = yes
  max neighbors/atom: 2000, page size: 100000
  master list distance cutoff = 13.005627
  ghost atom cutoff = 13.005627
  binsize = 6.5028134, bins = 5 5 5
  1 neighbor lists, perpetual/occasional/extra = 1 0 0
  (1) pair smatb, perpetual
      attributes: half, newton on
      pair build: half/bin/atomonly/newton
      stencil: half/bin/3d
      bin: standard
Per MPI rank memory allocation (min/avg/max) = 4.184 | 4.184 | 4.184 Mbytes
   Step          Temp          E_pair         E_mol          TotEng         Press     
         0   0             -90.165962      0             -90.165962      0.15999216   
         1   0             -90.165962      0             -90.165962      0.016319576  
Loop time of 8.37055e-05 on 4 procs for 1 steps with 34 atoms

18.8% CPU use with 4 MPI tasks x 1 OpenMP threads

Minimization stats:
  Stopping criterion = energy tolerance
  Energy initial, next-to-last, final = 
     -90.1659620528124  -90.1659620528124  -90.1659622946347
  Force two-norm initial, final = 0.0024917172 0.0017840646
  Force max component initial, final = 0.00098891473 0.00054742198
  Final line search alpha, max atom move = 1 0.00054742198
  Iterations, force evaluations = 1 2

MPI task timing breakdown:
Section |  min time  |  avg time  |  max time  |%varavg| %total
---------------------------------------------------------------
Pair    | 3.7391e-05 | 4.198e-05  | 4.5247e-05 |   0.0 | 50.15
Neigh   | 0          | 0          | 0          |   0.0 |  0.00
Comm    | 2.4447e-05 | 2.7063e-05 | 3.105e-05  |   0.0 | 32.33
Output  | 0          | 0          | 0          |   0.0 |  0.00
Modify  | 0          | 0          | 0          |   0.0 |  0.00
Other   |            | 1.466e-05  |            |       | 17.52

Nlocal:            8.5 ave          10 max           7 min
Histogram: 1 0 0 1 0 0 1 0 0 1
Nghost:           59.5 ave          61 max          57 min
Histogram: 1 0 0 0 0 0 0 2 0 1
Neighs:         140.25 ave         236 max          21 min
Histogram: 1 0 0 0 1 0 0 1 0 1

Total # of neighbors = 561
Ave neighs/atom = 16.5
Neighbor list builds = 0
Dangerous builds = 0

velocity            all create 600.0 761341 rot yes mom yes

fix		1 all nve
thermo		10
timestep	0.005

#dump		1 all atom 50 dump.smatb

#dump		2 all image 10 image.*.jpg element element #		axes yes 0.8 0.02 view 60 -30
#dump_modify	2 pad 3 element Ag Cu

#dump		3 all movie 10 movie.mpg element element #		axes yes 0.8 0.02 view 60 -30
#dump_modify	3 pad 3 element Ag Cu

run		10000
Per MPI rank memory allocation (min/avg/max) = 3.059 | 3.059 | 3.059 Mbytes
   Step          Temp          E_pair         E_mol          TotEng         Press     
         1   600           -90.165962      0             -87.606611      101.26402    
        10   298.0506      -88.871794      0             -87.600434      548.48617    
        20   248.60946     -88.662484      0             -87.602019      90.486083    
        30   221.44826     -88.545423      0             -87.600817     -508.39815    
        40   228.33268     -88.575214      0             -87.601242     -589.39365    
        50   245.7154      -88.649826      0             -87.601706      65.305495    
        60   273.03023     -88.765916      0             -87.601283      398.01803    
        70   366.50025     -89.166263      0             -87.602925      207.77985    
        80   276.91193     -88.782331      0             -87.60114       8.3684522    
        90   307.868       -88.915252      0             -87.602015     -304.72741    
       100   322.45302     -88.977777      0             -87.602327     -205.15812    
       110   303.31578     -88.896089      0             -87.60227       260.03553    
       120   269.99988     -88.753066      0             -87.601359      351.68785    
       130   286.8011      -88.825253      0             -87.601879     -64.479292    
       140   287.40216     -88.827221      0             -87.601282     -315.09505    
       150   328.85371     -89.004517      0             -87.601764     -298.80386    
       160   284.47173     -88.814826      0             -87.601388      358.1389     
       170   280.279       -88.797886      0             -87.602332      467.92358    
       180   311.43691     -88.931598      0             -87.603138     -77.489811    
       190   193.15923     -88.423986      0             -87.600048     -425.5563     
       200   304.96368     -88.902942      0             -87.602094     -596.60958    
       210   302.68927     -88.892198      0             -87.601051      91.636064    
       220   309.19801     -88.920064      0             -87.601153      621.21354    
       230   380.73063     -89.22681       0             -87.602771      447.14396    
       240   284.74877     -88.816012      0             -87.601392     -119.01968    
       250   238.52309     -88.61849       0             -87.601049     -501.65646    
       260   259.11102     -88.707412      0             -87.602152     -368.93359    
       270   251.74586     -88.674842      0             -87.600999      175.03119    
       280   382.00434     -89.231874      0             -87.602403      290.82425    
       290   310.3687      -88.924886      0             -87.600982      293.57749    
       300   279.433       -88.79349       0             -87.601545     -42.519241    
       310   276.82128     -88.781921      0             -87.601116     -274.91273    
       320   290.86073     -88.842663      0             -87.601972     -251.72319    
       330   247.13231     -88.655944      0             -87.60178       215.5825     
       340   304.78418     -88.902207      0             -87.602125      224.33743    
       350   321.83348     -88.975242      0             -87.602434     -146.36749    
       360   256.1084      -88.693238      0             -87.600785     -243.86723    
       370   333.28383     -89.023692      0             -87.602042     -202.7226     
       380   324.46336     -88.985932      0             -87.601906      338.96104    
       390   297.78689     -88.872153      0             -87.601918      474.90823    
       400   323.523       -88.983153      0             -87.603138      70.699072    
       410   241.32969     -88.630465      0             -87.601053     -335.98449    
       420   216.24017     -88.522752      0             -87.600361     -483.64034    
       430   340.87719     -89.057194      0             -87.603153     -153.19639    
       440   297.22954     -88.871197      0             -87.603339      437.42311    
       450   297.67599     -88.8724        0             -87.602638      411.10618    
       460   347.10992     -89.082494      0             -87.601867     -85.383428    
       470   310.98706     -88.928867      0             -87.602325     -258.83538    
       480   243.70408     -88.64023       0             -87.600689     -209.15529    
       490   202.36375     -88.462523      0             -87.599323      30.433491    
       500   310.02578     -88.925742      0             -87.603301      102.03538    
       510   311.17419     -88.929206      0             -87.601866      141.67864    
       520   338.18968     -89.045078      0             -87.602502     -16.941008    
       530   264.61141     -88.730468      0             -87.601746      187.78747    
       540   304.0748      -88.899894      0             -87.602837     -23.335389    
       550   257.2387      -88.699533      0             -87.60226      -76.623864    
       560   255.29649     -88.689478      0             -87.600489     -157.6005     
       570   296.00752     -88.86567       0             -87.603025     -80.312046    
       580   276.10128     -88.780334      0             -87.6026        53.17176     
       590   308.39452     -88.918678      0             -87.603195      38.274105    
       600   287.50603     -88.829033      0             -87.602652      114.15043    
       610   325.44631     -88.990713      0             -87.602494     -149.00031    
       620   296.79101     -88.868281      0             -87.602294     -31.191595    
       630   233.20643     -88.596762      0             -87.602         51.803242    
       640   366.28772     -89.16588       0             -87.603448     -35.874837    
       650   287.00582     -88.826607      0             -87.602359      108.51296    
       660   250.92942     -88.672951      0             -87.60259       71.245421    
       670   262.05685     -88.719309      0             -87.601484     -45.906179    
       680   325.28482     -88.989008      0             -87.601478     -153.5577     
       690   305.21477     -88.902942      0             -87.601023      86.906849    
       700   311.86315     -88.931883      0             -87.601604      101.32482    
       710   236.96144     -88.61142       0             -87.60064       80.204649    
       720   279.15425     -88.792529      0             -87.601773     -299.79972    
       730   324.76243     -88.988046      0             -87.602745     -190.80505    
       740   263.42453     -88.726147      0             -87.602488      265.91457    
       750   302.62838     -88.893264      0             -87.602377      140.40681    
       760   319.02473     -88.96278       0             -87.601953      31.374117    
       770   250.8839      -88.672034      0             -87.601867     -107.29433    
       780   270.67757     -88.756034      0             -87.601436     -223.11211    
       790   325.22943     -88.989523      0             -87.60223      -7.8218354    
       800   315.84743     -88.949085      0             -87.601811      158.29361    
       810   285.44223     -88.818547      0             -87.600969      348.1465     
       820   273.78228     -88.769575      0             -87.601733     -40.315077    
       830   278.78036     -88.790787      0             -87.601626     -239.09329    
       840   301.53249     -88.887576      0             -87.601364     -210.8338     
       850   299.43388     -88.879524      0             -87.602263      97.287213    
       860   289.9817      -88.83822       0             -87.601278      236.16201    
       870   308.32291     -88.917016      0             -87.601838      26.230231    
       880   286.88415     -88.826564      0             -87.602836     -12.642436    
       890   293.46738     -88.854834      0             -87.603024     -177.77579    
       900   260.54906     -88.713526      0             -87.602132     -138.78025    
       910   310.93853     -88.928482      0             -87.602147      5.3207191    
       920   331.11482     -89.015365      0             -87.602967      181.82814    
       930   278.62443     -88.790683      0             -87.602186      313.60224    
       940   307.93562     -88.915181      0             -87.601656     -139.69608    
       950   291.81836     -88.846372      0             -87.601596     -327.26973    
       960   277.8025      -88.786647      0             -87.601657     -129.44547    
       970   261.49577     -88.717364      0             -87.601931      242.6305     
       980   308.0163      -88.916951      0             -87.603082      169.78602    
       990   290.00437     -88.838536      0             -87.601498      44.660874    
      1000   357.1344      -89.126236      0             -87.602849     -265.91044    
      1010   283.45708     -88.810737      0             -87.601627     -152.47623    
      1020   297.97492     -88.874959      0             -87.603921      70.00523     
      1030   279.12249     -88.792681      0             -87.602061      159.79846    
      1040   312.39383     -88.934418      0             -87.601876      158.68328    
      1050   337.09276     -89.040629      0             -87.602731     -31.702724    
      1060   227.23727     -88.568884      0             -87.599584     -28.800733    
      1070   283.40375     -88.811423      0             -87.60254      -124.80818    
      1080   271.42275     -88.759439      0             -87.601662     -37.628741    
      1090   335.15468     -89.032775      0             -87.603144     -56.099081    
      1100   261.64481     -88.717593      0             -87.601525      176.07594    
      1110   297.2909      -88.870077      0             -87.601957      205.98241    
      1120   290.77288     -88.843161      0             -87.602844     -84.55887     
      1130   317.14042     -88.955942      0             -87.603153     -340.75016    
      1140   359.81744     -89.138017      0             -87.603185     -105.8786     
      1150   209.98715     -88.49576       0             -87.600042      230.91225    
      1160   324.43808     -88.986117      0             -87.602199      217.03324    
      1170   325.4821      -88.990737      0             -87.602366      1.5123229    
      1180   248.5009      -88.662178      0             -87.602177     -119.39002    
      1190   277.64425     -88.787604      0             -87.603289     -117.53181    
      1200   320.04284     -88.968181      0             -87.603011     -25.685206    
      1210   364.27176     -89.157253      0             -87.603421      75.929091    
      1220   234.49906     -88.600929      0             -87.600654      198.93977    
      1230   323.21645     -88.981743      0             -87.603036     -26.795407    
      1240   306.44746     -88.909845      0             -87.602668     -226.30248    
      1250   262.65422     -88.721948      0             -87.601575     -139.61234    
      1260   297.83104     -88.874145      0             -87.603721      127.64441    
      1270   319.69077     -88.967441      0             -87.603773      211.1439     
      1280   322.04803     -88.975391      0             -87.601668      120.21183    
      1290   302.37605     -88.891213      0             -87.601402     -164.43253    
      1300   226.70372     -88.568572      0             -87.601548     -143.94049    
      1310   222.50036     -88.550282      0             -87.601188     -163.7893     
      1320   338.85208     -89.048398      0             -87.602995     -102.76279    
      1330   370.2677      -89.182829      0             -87.603421      202.90736    
      1340   304.48434     -88.900827      0             -87.602023      436.17765    
      1350   271.13466     -88.758223      0             -87.601675      108.36451    
      1360   292.87592     -88.851046      0             -87.601759     -411.70922    
      1370   286.17601     -88.822909      0             -87.602201     -323.81016    
      1380   271.92765     -88.761741      0             -87.60181      -38.742365    
      1390   277.75266     -88.785982      0             -87.601205      391.17924    
      1400   347.88168     -89.086571      0             -87.602652      183.08725    
      1410   295.96621     -88.86433       0             -87.601861     -84.0265      
      1420   261.00333     -88.715462      0             -87.60213      -94.433666    
      1430   244.17278     -88.644119      0             -87.60258      -163.1004     
      1440   301.17108     -88.888009      0             -87.603338     -144.27123    
      1450   356.09498     -89.121777      0             -87.602823     -1.8206164    
      1460   332.86257     -89.021897      0             -87.602043      179.46074    
      1470   276.25226     -88.779864      0             -87.601487      376.39659    
      1480   302.47254     -88.892321      0             -87.602098     -88.155871    
      1490   246.60945     -88.652741      0             -87.600807     -132.37692    
      1500   284.04878     -88.813017      0             -87.601383     -290.0804     
      1510   283.76682     -88.812624      0             -87.602193     -33.272095    
      1520   254.7339      -88.688407      0             -87.601818      248.83014    
      1530   318.68849     -88.962694      0             -87.603302      99.197646    
      1540   322.71768     -88.979845      0             -87.603265     -45.038776    
      1550   243.53105     -88.639953      0             -87.601151     -131.47472    
      1560   267.44357     -88.742006      0             -87.601203     -89.590067    
      1570   286.79346     -88.824365      0             -87.601023      73.346429    
      1580   356.46927     -89.123462      0             -87.602912     -33.880707    
      1590   299.98929     -88.882122      0             -87.602492      136.18054    
      1600   277.07373     -88.785253      0             -87.603371      124.34489    
      1610   295.80216     -88.865226      0             -87.603457     -102.03415    
      1620   289.16666     -88.835667      0             -87.602202     -111.10681    
      1630   287.95146     -88.829784      0             -87.601503     -111.35052    
      1640   286.80875     -88.825858      0             -87.602451      83.844874    
      1650   275.08285     -88.775129      0             -87.60174       129.65013    
      1660   306.29672     -88.908967      0             -87.602432     -114.4214     
      1670   267.75873     -88.744656      0             -87.602508     -25.706226    
      1680   305.78446     -88.906817      0             -87.602467     -59.786573    
      1690   312.45402     -88.935284      0             -87.602484      27.295541    
      1700   279.11278     -88.794103      0             -87.603523      89.965543    
      1710   288.88848     -88.835185      0             -87.602907      46.419876    
      1720   310.9645      -88.928819      0             -87.602373     -93.075986    
      1730   268.93523     -88.747955      0             -87.600789     -91.989456    
      1740   294.57034     -88.858645      0             -87.602131      61.734208    
      1750   321.07641     -88.971939      0             -87.60236      -56.677924    
      1760   316.37702     -88.951114      0             -87.601581      209.15256    
      1770   277.22368     -88.785542      0             -87.603021      36.332449    
      1780   216.82668     -88.526023      0             -87.60113      -65.279021    
      1790   277.5677      -88.785691      0             -87.601702     -267.0748     
      1800   305.49588     -88.906685      0             -87.603566     -121.29204    
      1810   245.19957     -88.647543      0             -87.601624      293.34959    
      1820   344.99793     -89.073805      0             -87.602187      21.468923    
      1830   339.88657     -89.052485      0             -87.60267      -0.74286724   
      1840   246.70406     -88.653429      0             -87.601092     -88.583557    
      1850   324.78426     -88.989278      0             -87.603883     -127.0114     
      1860   288.73026     -88.833258      0             -87.601655      211.26227    
      1870   278.825       -88.791203      0             -87.601851      57.213965    
      1880   259.9335      -88.710377      0             -87.601609      22.449953    
      1890   256.11656     -88.693666      0             -87.601179     -140.61185    
      1900   281.84197     -88.804539      0             -87.602318     -112.01217    
      1910   319.25233     -88.964241      0             -87.602443     -43.005466    
      1920   335.34404     -89.033272      0             -87.602833      152.12463    
      1930   287.22826     -88.826665      0             -87.601468      249.61663    
      1940   310.67727     -88.926909      0             -87.601688     -10.319446    
      1950   283.51674     -88.811636      0             -87.602271     -162.04573    
      1960   279.31371     -88.793728      0             -87.602292     -265.7411     
      1970   256.30742     -88.694226      0             -87.600925     -38.707209    
      1980   333.25931     -89.024082      0             -87.602536      192.87856    
      1990   262.09798     -88.718972      0             -87.600971      283.75345    
      2000   289.03468     -88.834899      0             -87.601997     -87.145014    
      2010   259.61063     -88.707653      0             -87.600262     -260.74116    
      2020   340.97507     -89.056481      0             -87.602023     -187.81852    
      2030   306.81218     -88.910403      0             -87.601669      237.58171    
      2040   252.35573     -88.67799       0             -87.601545      322.76322    
      2050   284.67414     -88.816302      0             -87.602001     -3.8812599    
      2060   309.79645     -88.923171      0             -87.601708     -392.72627    
      2070   310.38253     -88.925966      0             -87.602003     -278.95375    
      2080   230.78966     -88.584789      0             -87.600336      293.00498    
      2090   296.90589     -88.868332      0             -87.601855      299.99507    
      2100   335.41016     -89.032518      0             -87.601798      21.683375    
      2110   288.43159     -88.831561      0             -87.601232     -250.86825    
      2120   220.80849     -88.542642      0             -87.600765     -136.68286    
      2130   297.90252     -88.872849      0             -87.602121      59.496607    
      2140   337.23055     -89.040459      0             -87.601974      119.22971    
      2150   313.52255     -88.938713      0             -87.601356      115.06472    
      2160   292.98901     -88.851486      0             -87.601716      2.7445393    
      2170   273.90882     -88.770222      0             -87.601841     -96.490889    
      2180   248.16043     -88.660088      0             -87.601539     -106.85882    
      2190   250.71686     -88.671169      0             -87.601715      32.540931    
      2200   275.08695     -88.775471      0             -87.602064      101.49632    
      2210   280.47811     -88.798356      0             -87.601953      20.917102    
      2220   282.21468     -88.805209      0             -87.601398     -142.41555    
      2230   284.46121     -88.814808      0             -87.601414     -129.41366    
      2240   284.8132      -88.816427      0             -87.601532      149.7711     
      2250   340.37526     -89.054127      0             -87.602227      115.16935    
      2260   305.22379     -88.9037        0             -87.601742      98.721069    
      2270   263.49622     -88.725657      0             -87.601692     -31.745142    
      2280   278.57193     -88.789913      0             -87.60164      -248.85367    
      2290   293.66029     -88.854561      0             -87.601928     -185.69861    
      2300   251.11644     -88.672199      0             -87.601041      190.89501    
      2310   332.43677     -89.020431      0             -87.602394      203.52899    
      2320   290.01894     -88.838399      0             -87.601299      147.03246    
      2330   326.26521     -88.994668      0             -87.602956     -130.95657    
      2340   270.77608     -88.756585      0             -87.601566     -201.99809    
      2350   283.93116     -88.812499      0             -87.601367     -121.74616    
      2360   314.9765      -88.946149      0             -87.60259       30.535494    
      2370   235.15429     -88.604199      0             -87.601129      249.78507    
      2380   282.26072     -88.806684      0             -87.602677      68.137       
      2390   258.81794     -88.705424      0             -87.601414     -145.85089    
      2400   287.72284     -88.829128      0             -87.601821     -198.27119    
      2410   260.55604     -88.712577      0             -87.601153      97.777147    
      2420   297.89661     -88.871728      0             -87.601025      125.72691    
      2430   328.18827     -89.001213      0             -87.601298     -3.2489995    
      2440   358.64023     -89.132558      0             -87.602748     -108.67293    
      2450   319.5724      -88.965617      0             -87.602453     -90.530036    
      2460   261.4953      -88.717297      0             -87.601867      147.03784    
      2470   223.10159     -88.553271      0             -87.601612      213.21307    
      2480   333.2092      -89.024686      0             -87.603354     -68.358604    
      2490   273.71813     -88.769955      0             -87.602387     -123.49275    
      2500   279.16172     -88.793277      0             -87.602489     -176.45586    
      2510   285.9364      -88.82119       0             -87.601504      21.244231    
      2520   368.13846     -89.173599      0             -87.603273     -20.381924    
      2530   310.7786      -88.928364      0             -87.602712      210.0803     
      2540   262.51949     -88.722218      0             -87.602419      146.22234    
      2550   309.35995     -88.92315       0             -87.603549     -124.54151    
      2560   293.18827     -88.85364       0             -87.60302      -174.73053    
      2570   235.53538     -88.605636      0             -87.60094      -147.83013    
      2580   262.26247     -88.719957      0             -87.601254      132.92267    
      2590   297.97835     -88.873001      0             -87.601949      163.59517    
      2600   337.95022     -89.044756      0             -87.603201      82.36615     
      2610   312.04061     -88.934176      0             -87.60314      -105.04018    
      2620   306.10807     -88.908372      0             -87.602642     -57.202263    
      2630   329.4455      -89.008169      0             -87.602892     -123.76384    
      2640   302.90811     -88.894738      0             -87.602658      29.475373    
      2650   255.98034     -88.692779      0             -87.600874      212.57206    
      2660   261.06595     -88.714857      0             -87.601258     -36.171156    
      2670   281.20595     -88.800942      0             -87.601435     -183.50837    
      2680   319.89613     -88.967189      0             -87.602645     -71.481436    
      2690   304.6762      -88.902183      0             -87.602561      85.436159    
      2700   265.5714      -88.734454      0             -87.601637      224.74383    
      2710   349.54309     -89.094333      0             -87.603327      4.6230147    
      2720   297.45441     -88.870532      0             -87.601715     -125.82163    
      2730   244.61733     -88.644959      0             -87.601523     -178.442      
      2740   272.62333     -88.764407      0             -87.601509     -48.315471    
      2750   326.42708     -88.994651      0             -87.602249      151.52454    
      2760   291.38623     -88.845698      0             -87.602765      290.11346    
      2770   275.9328      -88.779794      0             -87.602779     -13.760249    
      2780   272.3732      -88.764568      0             -87.602737     -318.44679    
      2790   290.70572     -88.843014      0             -87.602985     -258.42563    
      2800   308.72254     -88.919308      0             -87.602425      22.677448    
      2810   256.52831     -88.695266      0             -87.601023      447.6604     
      2820   344.16023     -89.070568      0             -87.602523      93.295923    
      2830   281.44963     -88.801699      0             -87.601151     -74.407282    
      2840   324.3509      -88.985973      0             -87.602427     -296.6773     
      2850   292.24218     -88.849222      0             -87.602638     -53.021253    
      2860   277.92042     -88.78802       0             -87.602527      184.19936    
      2870   267.98139     -88.744312      0             -87.601215      94.095204    
      2880   303.05644     -88.894748      0             -87.602035     -8.3640236    
      2890   298.40693     -88.875479      0             -87.602599     -78.797337    
      2900   234.73882     -88.602815      0             -87.601517     -42.812558    
      2910   285.8939      -88.821184      0             -87.601679     -19.253711    
      2920   345.83608     -89.07659       0             -87.601397     -51.024857    
      2930   285.25467     -88.817167      0             -87.600389      124.00359    
      2940   287.84765     -88.830109      0             -87.602271      49.190579    
      2950   278.44712     -88.790216      0             -87.602476     -46.974365    
      2960   270.16878     -88.75408       0             -87.601652     -46.725041    
      2970   300.52146     -88.883575      0             -87.601675     -99.866743    
      2980   307.7384      -88.914714      0             -87.60203       43.690493    
      2990   249.77097     -88.666673      0             -87.601253      203.36432    
      3000   300.43264     -88.883668      0             -87.602147     -26.614978    
      3010   323.13347     -88.980548      0             -87.602195     -92.228494    
      3020   329.13442     -89.006446      0             -87.602495     -129.38073    
      3030   300.8946      -88.886378      0             -87.602886      179.61503    
      3040   286.08245     -88.823347      0             -87.603038      108.1485     
      3050   289.26918     -88.837205      0             -87.603303     -151.68664    
      3060   242.99815     -88.639027      0             -87.602497     -46.627891    
      3070   239.42423     -88.622372      0             -87.601088     -107.46881    
      3080   336.58231     -89.039162      0             -87.603442     -39.955124    
      3090   271.44144     -88.758795      0             -87.600939      144.99918    
      3100   305.41297     -88.904819      0             -87.602054      154.84888    
      3110   336.83306     -89.040188      0             -87.603398     -74.448538    
      3120   320.07628     -88.968389      0             -87.603077     -86.643871    
      3130   319.32764     -88.964562      0             -87.602443     -149.45961    
      3140   258.56254     -88.704134      0             -87.601214      84.565301    
      3150   322.68574     -88.980074      0             -87.603631      172.40483    
      3160   234.31257     -88.600664      0             -87.601184      85.231717    
      3170   277.42147     -88.784978      0             -87.601613     -171.05733    
      3180   265.27592     -88.732773      0             -87.601216     -156.19833    
      3190   308.59341     -88.918414      0             -87.602083     -91.71715     
      3200   253.64517     -88.68281       0             -87.600865      214.39674    
      3210   328.22962     -89.003198      0             -87.603107      34.535465    
      3220   365.99989     -89.164203      0             -87.602999      23.682117    
      3230   273.01322     -88.765827      0             -87.601266     -16.895617    
      3240   280.71856     -88.799843      0             -87.602414     -97.009288    
      3250   275.08552     -88.77592       0             -87.60252      -43.634213    
      3260   331.02021     -89.015744      0             -87.603749     -18.973306    
      3270   321.58831     -88.974907      0             -87.603145      140.50765    
      3280   269.95975     -88.753536      0             -87.602         70.89268     
      3290   291.92704     -88.847162      0             -87.601923      70.469944    
      3300   297.56146     -88.871345      0             -87.602071     -109.75476    
      3310   294.11669     -88.856991      0             -87.602411     -180.29372    
      3320   254.67498     -88.687594      0             -87.601256      17.460286    
      3330   283.05371     -88.809126      0             -87.601736      12.032397    
      3340   294.706       -88.858893      0             -87.601799      39.060432    
      3350   316.35038     -88.952168      0             -87.602749      79.616791    
      3360   326.43286     -88.995025      0             -87.602598      15.099013    
      3370   253.32944     -88.681702      0             -87.601103     -8.7084979    
      3380   281.34048     -88.802214      0             -87.602132     -59.50097     
      3390   268.34802     -88.746372      0             -87.60171      -91.537768    
      3400   331.05568     -89.015094      0             -87.602948     -107.22864    
      3410   316.65473     -88.953073      0             -87.602356      158.06813    
      3420   283.07116     -88.808944      0             -87.60148       274.31797    
      3430   311.45615     -88.930339      0             -87.601796      120.85028    
      3440   285.51385     -88.81952       0             -87.601637     -245.92903    
      3450   280.02648     -88.795986      0             -87.601509     -328.0167     
      3460   288.09521     -88.830517      0             -87.601623     -5.720472     
      3470   302.73127     -88.894365      0             -87.603039      188.41708    
      3480   224.52963     -88.558207      0             -87.600457      308.7905     
      3490   317.52366     -88.956649      0             -87.602225     -150.52668    
      3500   284.55314     -88.815453      0             -87.601668     -210.59564    
      3510   248.06855     -88.659791      0             -87.601634     -53.755064    
      3520   353.53623     -89.111758      0             -87.603719      28.162159    
      3530   336.56256     -89.039137      0             -87.603501      142.37393    
      3540   290.67927     -88.84271       0             -87.602792      71.798537    
      3550   277.7575      -88.786994      0             -87.602196     -40.565286    
      3560   318.39652     -88.960109      0             -87.601961     -22.427043    
      3570   225.15842     -88.560718      0             -87.600286      216.23427    
      3580   318.05831     -88.960359      0             -87.603654     -45.863863    
      3590   247.18605     -88.655947      0             -87.601554     -188.11656    
      3600   291.54432     -88.846423      0             -87.602816     -325.57027    
      3610   307.72031     -88.91563       0             -87.603023      29.90598     
      3620   262.67033     -88.721388      0             -87.600945      321.93926    
      3630   322.97223     -88.980886      0             -87.60322       243.21194    
      3640   324.86546     -88.989006      0             -87.603265     -109.31792    
      3650   288.72631     -88.833968      0             -87.602382     -280.51474    
      3660   255.11488     -88.689678      0             -87.601464     -161.54256    
      3670   279.01942     -88.792652      0             -87.602471      109.30243    
      3680   336.96023     -89.040474      0             -87.603142      287.37713    
      3690   375.21715     -89.204579      0             -87.604058      195.62242    
      3700   301.63333     -88.890081      0             -87.603439     -85.889407    
      3710   239.27022     -88.621461      0             -87.600834     -221.8942     
      3720   296.07087     -88.864813      0             -87.601898     -249.12156    
      3730   261.65281     -88.718352      0             -87.60225       36.892407    
      3740   297.18936     -88.870577      0             -87.60289       227.79955    
      3750   270.9785      -88.757406      0             -87.601525      240.70121    
      3760   295.39803     -88.862879      0             -87.602833     -246.51176    
      3770   326.61627     -88.996777      0             -87.603567     -272.17155    
      3780   291.36049     -88.844469      0             -87.601646      29.331835    
      3790   328.66498     -89.00441       0             -87.602462      263.84089    
      3800   265.73017     -88.734729      0             -87.601235      342.55437    
      3810   300.38701     -88.883269      0             -87.601943     -174.25104    
      3820   297.27121     -88.870527      0             -87.602491     -416.99564    
      3830   248.70511     -88.662449      0             -87.601576     -104.31151    
      3840   331.0936      -89.015615      0             -87.603307      247.53684    
      3850   295.50925     -88.861777      0             -87.601257      335.5031     
      3860   250.7604      -88.670489      0             -87.60085       15.783078    
      3870   275.69405     -88.7789        0             -87.602904     -204.64942    
      3880   247.36382     -88.656941      0             -87.601789     -261.91099    
      3890   278.29014     -88.789272      0             -87.602202     -74.4749      
      3900   323.87282     -88.984908      0             -87.603401      58.817109    
      3910   347.75643     -89.085943      0             -87.602559      170.64797    
      3920   312.85768     -88.936811      0             -87.60229       169.93914    
      3930   297.47535     -88.871749      0             -87.602842      3.314195     
      3940   267.31069     -88.742565      0             -87.602329     -57.3572      
      3950   246.40535     -88.653853      0             -87.60279      -166.81412    
      3960   263.90789     -88.728195      0             -87.602474     -100.88127    
      3970   333.86299     -89.027459      0             -87.603338      88.165774    
      3980   284.95177     -88.817241      0             -87.601755      216.02414    
      3990   332.84661     -89.022957      0             -87.603172     -29.673168    
      4000   288.32794     -88.832167      0             -87.60228      -171.87163    
      4010   265.49357     -88.735039      0             -87.602553     -80.133841    
      4020   314.27122     -88.944003      0             -87.603452     -12.704889    
      4030   293.80619     -88.85552       0             -87.602264      14.368325    
      4040   258.95934     -88.706649      0             -87.602036      166.96286    
      4050   280.45572     -88.798645      0             -87.602338     -52.648494    
      4060   328.67771     -89.005607      0             -87.603605     -106.62087    
      4070   288.85913     -88.834217      0             -87.602064      11.767701    
      4080   320.53856     -88.9704        0             -87.603116      41.202088    
      4090   274.05775     -88.77101       0             -87.601994      195.88089    
      4100   322.28833     -88.977214      0             -87.602466     -59.372895    
      4110   291.42996     -88.845148      0             -87.602029     -99.676944    
      4120   295.94378     -88.865366      0             -87.602993     -152.91272    
      4130   247.62295     -88.656779      0             -87.600523      97.093234    
      4140   302.61088     -88.893348      0             -87.602536      94.178249    
      4150   272.42028     -88.763973      0             -87.601942      53.381301    
      4160   293.86986     -88.856177      0             -87.60265      -28.919294    
      4170   298.70627     -88.877477      0             -87.60332      -161.13797    
      4180   301.2423      -88.888809      0             -87.603835     -72.688745    
      4190   308.46935     -88.919234      0             -87.603432      39.576411    
      4200   300.94506     -88.885769      0             -87.602062      123.14651    
      4210   332.18789     -89.020759      0             -87.603783      124.93319    
      4220   267.23215     -88.742332      0             -87.60243       30.115978    
      4230   302.39844     -88.892205      0             -87.602299     -188.32126    
      4240   274.13975     -88.770116      0             -87.60075      -78.611232    
      4250   314.43747     -88.944031      0             -87.602771      49.20591     
      4260   301.96469     -88.891482      0             -87.603426      148.71802    
      4270   269.85945     -88.752917      0             -87.601809      55.396676    
      4280   291.97883     -88.847613      0             -87.602153     -55.255322    
      4290   295.7954      -88.864998      0             -87.603258     -176.44663    
      4300   235.10188     -88.604018      0             -87.601171      50.560647    
      4310   269.97274     -88.752658      0             -87.601066      95.334169    
      4320   282.61057     -88.807876      0             -87.602376      6.3520225    
      4330   290.30227     -88.840629      0             -87.60232      -140.39196    
      4340   322.9903      -88.97941       0             -87.601668     -150.85612    
      4350   308.25393     -88.917526      0             -87.602643      106.11702    
      4360   329.17555     -89.007426      0             -87.603299      248.1614     
      4370   280.05739     -88.795806      0             -87.601198      145.04523    
      4380   268.10985     -88.745343      0             -87.601698     -39.573524    
      4390   247.07847     -88.656083      0             -87.602149     -306.47887    
      4400   269.65377     -88.752537      0             -87.602306     -235.31818    
      4410   251.32136     -88.67312       0             -87.601088      145.22285    
      4420   329.60854     -89.008319      0             -87.602345      249.41031    
      4430   357.21501     -89.126681      0             -87.60295       91.227779    
      4440   266.06375     -88.735853      0             -87.600935      40.427313    
      4450   261.45511     -88.716565      0             -87.601306     -221.80301    
      4460   252.73448     -88.679158      0             -87.601098     -183.65065    
      4470   316.66309     -88.952921      0             -87.602167     -113.19969    
      4480   268.87734     -88.748323      0             -87.601403      257.51909    
      4490   305.63134     -88.906654      0             -87.602957      285.64278    
      4500   330.63366     -89.013189      0             -87.602843     -26.020703    
      4510   309.48973     -88.92233       0             -87.602175     -146.94173    
      4520   268.9909      -88.749296      0             -87.601892     -118.08796    
      4530   271.84086     -88.761698      0             -87.602138     -19.627365    
      4540   281.75972     -88.80395       0             -87.60208       79.047398    
      4550   316.07176     -88.950668      0             -87.602438      32.455662    
      4560   321.49332     -88.974221      0             -87.602864     -6.6010186    
      4570   273.65749     -88.769653      0             -87.602343      47.273908    
      4580   289.88569     -88.838247      0             -87.601715     -35.819136    
      4590   268.90987     -88.747742      0             -87.600684     -65.66245     
      4600   292.36222     -88.849392      0             -87.602296     -31.818455    
      4610   248.94494     -88.663794      0             -87.601898     -13.076875    
      4620   349.97056     -89.096146      0             -87.603317     -67.322443    
      4630   284.20042     -88.814023      0             -87.601742      154.55006    
      4640   318.0435      -88.959695      0             -87.603053      159.98094    
      4650   338.8469      -89.049138      0             -87.603758      28.516414    
      4660   240.99963     -88.629628      0             -87.601624     -123.4128     
      4670   260.57226     -88.71377       0             -87.602277     -175.76146    
      4680   330.5539      -89.013748      0             -87.603743     -146.58855    
      4690   287.82038     -88.83035       0             -87.602628      242.29236    
      4700   300.73395     -88.885566      0             -87.60276       204.18546    
      4710   315.52139     -88.948023      0             -87.60214      -48.460154    
      4720   281.23514     -88.801046      0             -87.601414     -69.177649    
      4730   291.65283     -88.846068      0             -87.601998     -204.77043    
      4740   252.84546     -88.679647      0             -87.601113     -7.7379058    
      4750   312.07694     -88.93338       0             -87.602189     -18.743851    
      4760   262.73679     -88.722662      0             -87.601936      312.83098    
      4770   278.24575     -88.789214      0             -87.602333      159.48794    
      4780   354.97088     -89.117062      0             -87.602903     -190.12637    
      4790   278.53444     -88.79003       0             -87.601918     -181.83121    
      4800   299.99476     -88.882809      0             -87.603156     -126.35232    
      4810   244.92803     -88.645891      0             -87.601129      203.37831    
      4820   285.94356     -88.821741      0             -87.602025      69.805439    
      4830   275.82747     -88.778903      0             -87.602338      83.287752    
      4840   285.29126     -88.81863       0             -87.601696     -138.92139    
      4850   321.25901     -88.972385      0             -87.602027     -109.2671     
      4860   339.03706     -89.049222      0             -87.603031     -21.519347    
      4870   237.97979     -88.616684      0             -87.601562      170.77098    
      4880   273.76245     -88.769855      0             -87.602098      103.56591    
      4890   257.34736     -88.699297      0             -87.60156      -126.28519    
      4900   306.03081     -88.907958      0             -87.602558     -117.32815    
      4910   315.31249     -88.947124      0             -87.602132      33.135219    
      4920   330.3138      -89.012164      0             -87.603183      146.27318    
      4930   307.35706     -88.91351       0             -87.602452      166.86904    
      4940   319.88681     -88.966612      0             -87.602107     -169.19853    
      4950   251.8091      -88.676139      0             -87.602026     -107.29796    
      4960   239.21007     -88.621702      0             -87.601331     -133.59739    
      4970   302.57922     -88.892488      0             -87.60181       68.937467    
      4980   272.59042     -88.764557      0             -87.6018        272.80179    
      4990   308.20881     -88.917124      0             -87.602433     -27.306028    
      5000   283.08837     -88.809711      0             -87.602174     -193.59312    
      5010   271.66931     -88.760724      0             -87.601895     -211.93715    
      5020   337.85764     -89.044387      0             -87.603227      69.702074    
      5030   279.84207     -88.796295      0             -87.602604      278.19474    
      5040   343.65664     -89.069247      0             -87.603351      223.01447    
      5050   334.11751     -89.027572      0             -87.602366     -99.941254    
      5060   266.49279     -88.73915       0             -87.602403     -240.67514    
      5070   234.55981     -88.602066      0             -87.601532     -81.61689     
      5080   330.55382     -89.013369      0             -87.603363     -24.275325    
      5090   259.16662     -88.707232      0             -87.601735      280.29113    
      5100   318.66313     -88.961965      0             -87.60268       170.26407    
      5110   300.16651     -88.88274       0             -87.602355     -267.0779     
      5120   265.09674     -88.732603      0             -87.60181      -230.90023    
      5130   278.68603     -88.789478      0             -87.600719     -137.57887    
      5140   303.65375     -88.897382      0             -87.602121      205.56861    
      5150   267.93783     -88.744154      0             -87.601242      292.8219     
      5160   304.52752     -88.901112      0             -87.602124      108.8296     
      5170   309.53827     -88.923051      0             -87.60269      -147.74375    
      5180   287.51193     -88.828163      0             -87.601756     -177.30386    
      5190   284.24168     -88.814782      0             -87.602325      5.1545502    
      5200   270.52553     -88.756443      0             -87.602493      120.26404    
      5210   333.36681     -89.024391      0             -87.602387     -60.84196     
      5220   270.17773     -88.754539      0             -87.602073      111.75484    
      5230   295.8626      -88.866028      0             -87.604001     -24.461129    
      5240   266.68887     -88.739844      0             -87.60226      -116.88918    
      5250   277.35301     -88.785226      0             -87.602153     -64.001358    
      5260   304.06796     -88.898148      0             -87.60112      -103.51059    
      5270   299.0663      -88.877521      0             -87.601828      197.60924    
      5280   278.15918     -88.788194      0             -87.601682      202.49315    
      5290   315.0978      -88.946106      0             -87.602029      52.934028    
      5300   340.86182     -89.057288      0             -87.603313     -210.87879    
      5310   269.85626     -88.752457      0             -87.601362     -49.658777    
      5320   257.33327     -88.699415      0             -87.601738      32.55983     
      5330   268.88203     -88.749446      0             -87.602507      39.021427    
      5340   314.04271     -88.942458      0             -87.602883     -56.056673    
      5350   315.51416     -88.94798       0             -87.602128      4.6629425    
      5360   307.4562      -88.913347      0             -87.601867      57.916861    
      5370   250.7454      -88.670309      0             -87.600733      163.63496    
      5380   287.75758     -88.829733      0             -87.602279     -113.59418    
      5390   321.26501     -88.973918      0             -87.603534     -269.13189    
      5400   231.82685     -88.589995      0             -87.601118     -11.819571    
      5410   341.5498      -89.060333      0             -87.603423      84.776401    
      5420   299.71416     -88.880988      0             -87.602531      285.50197    
      5430   294.54742     -88.85908       0             -87.602663      93.590097    
      5440   314.74737     -88.945326      0             -87.602745     -250.73535    
      5450   258.85142     -88.705333      0             -87.601181     -210.06439    
      5460   282.83227     -88.808224      0             -87.601779     -67.938316    
      5470   288.83102     -88.833962      0             -87.601929      322.03996    
      5480   323.12758     -88.981727      0             -87.603399      160.79144    
      5490   319.2608      -88.964861      0             -87.603027     -101.99137    
      5500   279.66928     -88.794739      0             -87.601786     -212.54007    
      5510   284.20889     -88.814836      0             -87.602519     -103.86489    
      5520   266.26306     -88.736863      0             -87.601096      151.98448    
      5530   345.48586     -89.077388      0             -87.603689      140.88365    
      5540   317.97203     -88.959016      0             -87.602679      50.639025    
      5550   299.53242     -88.879809      0             -87.602128     -191.33       
      5560   242.63178     -88.636927      0             -87.60196      -65.882919    
      5570   293.01951     -88.853155      0             -87.603255      23.265583    
      5580   279.33012     -88.794116      0             -87.60261       98.101523    
      5590   275.25013     -88.775703      0             -87.6016        39.355331    
      5600   305.39754     -88.905431      0             -87.602732     -52.631777    
      5610   311.21274     -88.931479      0             -87.603975     -53.145402    
      5620   299.72838     -88.88131       0             -87.602794     -13.057724    
      5630   348.1917      -89.087674      0             -87.602432     -55.838126    
      5640   287.93694     -88.830003      0             -87.601783      95.916856    
      5650   292.33836     -88.850364      0             -87.60337       86.541634    
      5660   279.71377     -88.795995      0             -87.602852     -70.310434    
      5670   295.35682     -88.861699      0             -87.60183      -197.15697    
      5680   323.95519     -88.983974      0             -87.602116     -27.458039    
      5690   289.63611     -88.837645      0             -87.602178      187.43368    
      5700   294.66776     -88.859949      0             -87.603019      219.96286    
      5710   301.71513     -88.889976      0             -87.602984     -159.09014    
      5720   277.06077     -88.783554      0             -87.601728     -132.14417    
      5730   300.8646      -88.885929      0             -87.602565     -92.38791     
      5740   284.71519     -88.816512      0             -87.602036     -1.4782343    
      5750   311.63964     -88.931811      0             -87.602486      240.28479    
      5760   299.99549     -88.882121      0             -87.602465      84.322537    
      5770   317.29866     -88.956219      0             -87.602755     -149.28011    
      5780   270.10118     -88.753944      0             -87.601804     -197.93446    
      5790   259.69703     -88.709332      0             -87.601572     -79.244754    
      5800   282.58176     -88.807459      0             -87.602082      145.20302    
      5810   304.29683     -88.900312      0             -87.602309      202.60005    
      5820   335.28695     -89.032932      0             -87.602737     -51.588703    
      5830   241.9562      -88.633231      0             -87.601146     -66.353541    
      5840   282.5324      -88.808284      0             -87.603118     -76.80864     
      5850   299.99575     -88.882043      0             -87.602385     -91.4058      
      5860   304.33014     -88.899878      0             -87.601732      71.605011    
      5870   343.94068     -89.070438      0             -87.603329      134.13628    
      5880   291.71302     -88.846902      0             -87.602575      119.30119    
      5890   280.96143     -88.801388      0             -87.602923     -113.70417    
      5900   254.81689     -88.688792      0             -87.601849     -95.755947    
      5910   306.26394     -88.908496      0             -87.602101     -97.697528    
      5920   313.25247     -88.938264      0             -87.602059      51.861063    
      5930   279.2757      -88.792442      0             -87.601168      210.04453    
      5940   276.12329     -88.779348      0             -87.601521      35.490423    
      5950   309.38765     -88.92215       0             -87.60243      -163.54816    
      5960   286.72276     -88.825242      0             -87.602202     -150.01653    
      5970   278.78656     -88.791194      0             -87.602006      121.57759    
      5980   303.67847     -88.896559      0             -87.601192      84.915123    
      5990   322.66597     -88.977935      0             -87.601576      35.200564    
      6000   256.10971     -88.693253      0             -87.600795      62.754512    
      6010   290.16316     -88.839388      0             -87.601672     -30.957805    
      6020   265.5959      -88.734653      0             -87.601731      56.972271    
      6030   299.24662     -88.878439      0             -87.601977     -145.94772    
      6040   329.90159     -89.009683      0             -87.60246      -123.50928    
      6050   279.96298     -88.795934      0             -87.601728      109.3583     
      6060   261.92288     -88.718945      0             -87.601691      130.5605     
      6070   283.33864     -88.810324      0             -87.601719     -30.602145    
      6080   311.78407     -88.932661      0             -87.602719     -147.49341    
      6090   286.98041     -88.826788      0             -87.602649     -34.977654    
      6100   315.23264     -88.946942      0             -87.60229       69.660615    
      6110   313.6441      -88.939959      0             -87.602083      33.6794      
      6120   293.04155     -88.851956      0             -87.601962      75.396067    
      6130   290.10985     -88.838987      0             -87.601499     -25.04329     
      6140   321.60402     -88.974272      0             -87.602442     -25.613154    
      6150   277.818       -88.787884      0             -87.602827      143.97161    
      6160   295.79072     -88.865294      0             -87.603574     -60.479758    
      6170   254.1146      -88.685467      0             -87.60152      -87.589078    
      6180   299.78289     -88.881957      0             -87.603208     -199.8206     
      6190   215.68382     -88.521238      0             -87.60122       63.496823    
      6200   354.18345     -89.115212      0             -87.604412     -42.719039    
      6210   296.57575     -88.868644      0             -87.603575      118.93913    
      6220   342.93208     -89.065469      0             -87.602663      81.281668    
      6230   307.38602     -88.913246      0             -87.602064     -136.93705    
      6240   231.14977     -88.5868        0             -87.600811      65.708242    
      6250   312.69054     -88.936511      0             -87.602703     -39.435487    
      6260   305.8694      -88.906477      0             -87.601765     -52.94275     
      6270   296.57053     -88.866745      0             -87.601698      134.1331     
      6280   279.27972     -88.792199      0             -87.600908      113.83825    
      6290   318.35333     -88.959523      0             -87.60156      -70.924501    
      6300   276.82968     -88.783416      0             -87.602575     -62.134953    
      6310   259.69888     -88.710186      0             -87.602419     -52.247665    
      6320   277.87218     -88.787023      0             -87.601735     -15.645762    
      6330   308.96493     -88.919165      0             -87.601249     -38.005706    
      6340   296.34678     -88.865251      0             -87.601159      66.13616     
      6350   269.70133     -88.752225      0             -87.601791      45.341101    
      6360   303.11724     -88.894971      0             -87.601999     -69.262413    
      6370   312.80009     -88.936505      0             -87.602229      17.831377    
      6380   217.29427     -88.528094      0             -87.601207      178.15013    
      6390   298.82933     -88.877161      0             -87.60248      -200.16979    
      6400   288.2247      -88.831156      0             -87.601709     -122.99205    
      6410   297.54927     -88.871029      0             -87.601808      53.988146    
      6420   291.93579     -88.847384      0             -87.602107      190.21602    
      6430   283.1756      -88.810311      0             -87.602402      128.61796    
      6440   338.32904     -89.045529      0             -87.602358     -170.90167    
      6450   331.3022      -89.015215      0             -87.602018     -166.48339    
      6460   287.97609     -88.830537      0             -87.60215       2.0655232    
      6470   249.3835      -88.665393      0             -87.601627      116.6427     
      6480   322.80614     -88.980594      0             -87.603637      21.198295    
      6490   278.46869     -88.791008      0             -87.603176      73.830167    
      6500   238.29495     -88.617894      0             -87.601427     -39.478098    
      6510   337.2559      -89.040816      0             -87.602223     -214.99517    
      6520   312.33456     -88.934564      0             -87.602275     -19.600444    
      6530   309.15634     -88.921515      0             -87.602783      193.57317    
      6540   335.02207     -89.031272      0             -87.602207      124.90669    
      6550   261.3791      -88.716376      0             -87.601441     -28.495837    
      6560   259.26992     -88.707639      0             -87.601701     -208.81648    
      6570   301.74735     -88.889452      0             -87.602323     -119.00553    
      6580   276.73529     -88.782445      0             -87.602008      170.93591    
      6590   275.19059     -88.775478      0             -87.601629      64.207814    
      6600   317.20188     -88.955499      0             -87.602448     -41.199185    
      6610   310.08653     -88.924314      0             -87.601614     -177.85732    
      6620   280.18178     -88.797162      0             -87.602023      1.501313     
      6630   279.36672     -88.794293      0             -87.602631      143.95302    
      6640   305.51195     -88.905374      0             -87.602187      90.204469    
      6650   327.9376      -89.00158       0             -87.602734     -42.404029    
      6660   301.31809     -88.887738      0             -87.60244      -21.641819    
      6670   297.67995     -88.872098      0             -87.602319     -64.959513    
      6680   269.23192     -88.74901       0             -87.600579      120.96165    
      6690   313.6416      -88.939697      0             -87.601832      61.336773    
      6700   261.84778     -88.718836      0             -87.601903     -7.5726627    
      6710   259.82674     -88.71022       0             -87.601907     -172.95557    
      6720   288.54722     -88.832614      0             -87.601792     -137.687      
      6730   317.07025     -88.955336      0             -87.602846     -4.3175205    
      6740   284.22542     -88.814551      0             -87.602163      196.67392    
      6750   305.06617     -88.903137      0             -87.601851      17.969386    
      6760   327.88597     -89.001321      0             -87.602696     -55.415576    
      6770   269.13533     -88.749692      0             -87.601673      85.464035    
      6780   279.34395     -88.794206      0             -87.602641     -3.3212248    
      6790   281.00265     -88.801249      0             -87.602608      15.500599    
      6800   316.49761     -88.952673      0             -87.602626     -40.20704     
      6810   316.43521     -88.952541      0             -87.60276      -27.272158    
      6820   256.41254     -88.695939      0             -87.60219       34.019501    
      6830   255.57822     -88.691581      0             -87.60139      -31.619262    
      6840   311.23579     -88.929301      0             -87.601698     -50.020163    
      6850   300.33098     -88.88298       0             -87.601893      3.4424805    
      6860   266.66453     -88.738838      0             -87.601358      186.00423    
      6870   317.97312     -88.958442      0             -87.602101     -79.736561    
      6880   306.78727     -88.910939      0             -87.602312     -184.79038    
      6890   259.99822     -88.710585      0             -87.601541      98.542115    
      6900   325.56072     -88.991746      0             -87.603039      95.875762    
      6910   295.22383     -88.862299      0             -87.602997      133.61065    
      6920   265.52421     -88.734355      0             -87.601739     -8.7691202    
      6930   324.07732     -88.98374       0             -87.601361     -253.34995    
      6940   333.22706     -89.023977      0             -87.602568     -48.421012    
      6950   234.56497     -88.602005      0             -87.601448      310.17486    
      6960   311.88002     -88.932905      0             -87.602554      157.05509    
      6970   296.53424     -88.866568      0             -87.601676     -213.69497    
      6980   276.66311     -88.782923      0             -87.602793     -239.89679    
      6990   226.62746     -88.568667      0             -87.601969      35.903567    
      7000   322.58197     -88.978624      0             -87.602623      22.982718    
      7010   333.99236     -89.026943      0             -87.602271      102.48667    
      7020   211.22538     -88.50141       0             -87.60041       217.6325     
      7030   311.08542     -88.929061      0             -87.602099     -200.09815    
      7040   343.23948     -89.066424      0             -87.602307     -127.96227    
      7050   259.99642     -88.709985      0             -87.600949      45.978624    
      7060   295.54938     -88.863526      0             -87.602835      114.59562    
      7070   286.87408     -88.826539      0             -87.602853      74.423852    
      7080   326.02204     -88.993001      0             -87.602327      8.1829582    
      7090   275.68543     -88.777135      0             -87.601175     -43.643517    
      7100   308.02629     -88.916909      0             -87.602997     -26.09125     
      7110   260.00461     -88.710371      0             -87.601299     -45.501143    
      7120   267.55333     -88.742401      0             -87.60113      -41.397048    
      7130   306.71163     -88.910577      0             -87.602273     -26.590736    
      7140   311.10121     -88.930424      0             -87.603395      61.364462    
      7150   283.40505     -88.811286      0             -87.602398      160.31407    
      7160   335.51662     -89.034103      0             -87.602929     -80.099543    
      7170   305.42417     -88.905726      0             -87.602914     -60.598589    
      7180   257.61674     -88.70123       0             -87.602344     -100.0835     
      7190   285.51245     -88.820106      0             -87.602228      40.2676      
      7200   303.90388     -88.898224      0             -87.601897      108.40759    
      7210   330.27325     -89.012007      0             -87.603198      35.750105    
      7220   279.30076     -88.7932        0             -87.601819      34.683538    
      7230   270.27127     -88.75411       0             -87.601245     -71.727739    
      7240   272.43178     -88.764439      0             -87.602358     -94.327944    
      7250   246.37562     -88.652817      0             -87.601881     -54.582119    
      7260   279.52349     -88.794356      0             -87.602025      16.68395     
      7270   310.45392     -88.926439      0             -87.602172      45.157342    
      7280   282.65203     -88.807607      0             -87.601931      29.140259    
      7290   350.52528     -89.098161      0             -87.602966     -57.57935     
      7300   303.87229     -88.897452      0             -87.601259      21.83274     
      7310   327.59386     -89.000195      0             -87.602816      75.101045    
      7320   307.57947     -88.91531       0             -87.603303     -12.66444     
      7330   270.72014     -88.758093      0             -87.603313     -27.224596    
      7340   280.28014     -88.798763      0             -87.603204     -24.852399    
      7350   300.5599      -88.884306      0             -87.602243     -5.4113729    
      7360   314.8959      -88.945118      0             -87.601903      27.752616    
      7370   296.50961     -88.866607      0             -87.60182       24.475463    
      7380   315.69426     -88.948505      0             -87.601884     -117.94723    
      7390   277.72676     -88.786566      0             -87.601899      41.226789    
      7400   300.9435      -88.886991      0             -87.603291      57.759684    
      7410   279.70481     -88.795191      0             -87.602087     -51.047065    
      7420   289.96479     -88.838623      0             -87.601753     -50.253354    
      7430   292.42527     -88.848815      0             -87.60145      -17.140561    
      7440   299.88369     -88.880891      0             -87.601711      17.109756    
      7450   309.27586     -88.921194      0             -87.601952     -22.709289    
      7460   322.6476      -88.979287      0             -87.603007      162.04538    
      7470   290.92285     -88.843374      0             -87.602418      167.57843    
      7480   273.67417     -88.769024      0             -87.601643     -115.72369    
      7490   281.96071     -88.805039      0             -87.602312     -186.59994    
      7500   288.21184     -88.832206      0             -87.602814     -129.87843    
      7510   237.67048     -88.61543       0             -87.601626      125.21482    
      7520   301.54978     -88.889455      0             -87.603168      167.18554    
      7530   313.83634     -88.941294      0             -87.602598     -164.79229    
      7540   314.22503     -88.942029      0             -87.601675     -100.49669    
      7550   243.2497      -88.638585      0             -87.600983      127.97446    
      7560   304.87021     -88.903023      0             -87.602573      125.9112     
      7570   338.20892     -89.045393      0             -87.602734     -157.32875    
      7580   302.68425     -88.894123      0             -87.602998     -64.830246    
      7590   251.5258      -88.675651      0             -87.602746      102.88112    
      7600   258.36561     -88.705006      0             -87.602925      41.29649     
      7610   334.97746     -89.03175       0             -87.602875     -73.956629    
      7620   334.06521     -89.027809      0             -87.602825     -51.972145    
      7630   299.12705     -88.878049      0             -87.602097      190.80678    
      7640   305.88347     -88.907811      0             -87.603039      79.380409    
      7650   293.9263      -88.856669      0             -87.602902     -31.485858    
      7660   267.48823     -88.742062      0             -87.601068     -182.38205    
      7670   249.27188     -88.664832      0             -87.601542     -149.05       
      7680   259.13642     -88.707542      0             -87.602174      22.598647    
      7690   305.77052     -88.906654      0             -87.602363     -21.059357    
      7700   307.3459      -88.912713      0             -87.601703     -27.033485    
      7710   312.53853     -88.935357      0             -87.602197      192.54682    
      7720   273.06739     -88.766623      0             -87.601831      147.28617    
      7730   278.11188     -88.788366      0             -87.602057     -58.637567    
      7740   317.07815     -88.954657      0             -87.602133     -211.64358    
      7750   296.53285     -88.866479      0             -87.601593     -83.733771    
      7760   241.87973     -88.633124      0             -87.601366      251.12045    
      7770   319.17616     -88.964321      0             -87.602848      162.16686    
      7780   339.90333     -89.052016      0             -87.602129      2.2949009    
      7790   299.60497     -88.879999      0             -87.602008     -117.63497    
      7800   268.46168     -88.747386      0             -87.60224      -203.1152     
      7810   236.29677     -88.609763      0             -87.601819      31.678236    
      7820   319.6747      -88.967683      0             -87.604083     -65.905907    
      7830   300.01613     -88.883157      0             -87.603413     -24.062329    
      7840   291.06063     -88.8438        0             -87.602256      79.113872    
      7850   242.7516      -88.636239      0             -87.600762      206.11935    
      7860   338.341       -89.04652       0             -87.603298     -90.451698    
      7870   313.83464     -88.941487      0             -87.602799     -198.33469    
      7880   286.19784     -88.8231        0             -87.602299      44.194095    
      7890   313.38066     -88.940847      0             -87.604095      103.45444    
      7900   289.9347      -88.839488      0             -87.602747      97.199697    
      7910   267.35809     -88.741032      0             -87.600593      43.315541    
      7920   300.891       -88.885805      0             -87.602328     -148.92683    
      7930   301.37182     -88.888408      0             -87.602881     -104.03849    
      7940   225.1235      -88.561487      0             -87.601204      213.70867    
      7950   330.26196     -89.012045      0             -87.603284     -25.129188    
      7960   324.20503     -88.985696      0             -87.602772     -243.07529    
      7970   241.56279     -88.632156      0             -87.60175      -9.5397731    
      7980   286.2012      -88.822907      0             -87.602092      138.74287    
      7990   352.09168     -89.103759      0             -87.601882     -19.278434    
      8000   309.21552     -88.920353      0             -87.601368      144.62866    
      8010   287.61337     -88.829046      0             -87.602207      70.754252    
      8020   272.71325     -88.765973      0             -87.602692     -75.523412    
      8030   209.35656     -88.494365      0             -87.601337     -158.78296    
      8040   292.16157     -88.848945      0             -87.602705     -217.16928    
      8050   349.06055     -89.091449      0             -87.602501      128.85374    
      8060   320.12682     -88.967976      0             -87.602448      325.38373    
      8070   331.8242      -89.018723      0             -87.603298      211.33547    
      8080   250.99252     -88.671359      0             -87.600729     -115.81065    
      8090   309.67092     -88.923085      0             -87.602157     -449.46329    
      8100   293.05827     -88.852497      0             -87.602432     -117.90516    
      8110   237.68218     -88.615902      0             -87.602048      254.81575    
      8120   287.03905     -88.827474      0             -87.603085      259.01055    
      8130   342.23495     -89.062695      0             -87.602863     -75.068265    
      8140   283.67689     -88.81186       0             -87.601812     -162.174      
      8150   264.13834     -88.728761      0             -87.602056     -57.242027    
      8160   282.69482     -88.807417      0             -87.601558      26.97049     
      8170   323.86065     -88.983487      0             -87.602032      170.07721    
      8180   326.78529     -88.996163      0             -87.602233      12.293587    
      8190   287.28562     -88.82776       0             -87.602319     -23.445871    
      8200   251.8973      -88.676711      0             -87.602221     -109.94604    
      8210   311.5017      -88.931981      0             -87.603244     -122.53176    
      8220   353.00955     -89.10956       0             -87.603768      44.091312    
      8230   286.75225     -88.825693      0             -87.602527      231.99157    
      8240   287.09592     -88.826993      0             -87.602361      147.70595    
      8250   279.27047     -88.792915      0             -87.601663     -148.27446    
      8260   293.89173     -88.855748      0             -87.602128     -289.89885    
      8270   284.97979     -88.818214      0             -87.602609     -78.395761    
      8280   257.18971     -88.698807      0             -87.601743      251.01426    
      8290   296.83684     -88.868712      0             -87.60253       175.81725    
      8300   308.82807     -88.919525      0             -87.602193     -50.699713    
      8310   310.08988     -88.92429       0             -87.601575     -188.6313     
      8320   308.19397     -88.91697       0             -87.602343     -120.65088    
      8330   256.87246     -88.697698      0             -87.601987      208.18358    
      8340   331.49315     -89.016997      0             -87.602985      39.28552     
      8350   249.02624     -88.663163      0             -87.60092       2.062324     
      8360   254.48734     -88.687659      0             -87.602122     -105.11179    
      8370   289.23801     -88.836524      0             -87.602755     -202.5786     
      8380   307.55667     -88.913329      0             -87.60142       130.23707    
      8390   245.89298     -88.648515      0             -87.599638      269.29936    
      8400   328.57612     -89.003664      0             -87.602095      35.876594    
      8410   343.01289     -89.066024      0             -87.602873     -268.85059    
      8420   295.07056     -88.860329      0             -87.60168      -127.97465    
      8430   324.43431     -88.986561      0             -87.602659      152.04515    
      8440   258.73561     -88.70616       0             -87.602502      228.81115    
      8450   249.80382     -88.667779      0             -87.60222       69.828699    
      8460   239.35242     -88.622176      0             -87.601198     -205.62236    
      8470   263.4172      -88.725186      0             -87.601557     -217.93944    
      8480   288.73303     -88.833232      0             -87.601617     -52.736568    
      8490   333.83818     -89.026993      0             -87.602978      254.42973    
      8500   312.25242     -88.934988      0             -87.603049      143.134      
      8510   273.39785     -88.768293      0             -87.602091     -30.735791    
      8520   297.07473     -88.869484      0             -87.602287     -218.96851    
      8530   283.00507     -88.808617      0             -87.601435     -223.58463    
      8540   251.59016     -88.674106      0             -87.600926      184.56317    
      8550   291.19643     -88.843521      0             -87.601398      216.87379    
      8560   344.51352     -89.072601      0             -87.60305       73.384965    
      8570   258.65974     -88.704596      0             -87.601261     -22.868072    
      8580   298.00417     -88.872785      0             -87.601622     -203.05052    
      8590   292.28262     -88.848707      0             -87.601951     -99.47771     
      8600   277.58933     -88.785877      0             -87.601796      129.03002    
      8610   301.0996      -88.886222      0             -87.601856      123.74287    
      8620   300.50649     -88.884118      0             -87.602282      72.015642    
      8630   317.04298     -88.955246      0             -87.602872     -162.90267    
      8640   267.25917     -88.74247       0             -87.602454     -172.61624    
      8650   276.98806     -88.784578      0             -87.603062     -5.7423036    
      8660   288.2685      -88.831352      0             -87.601718      207.42512    
      8670   309.8422      -88.92419       0             -87.602532      116.2381     
      8680   272.87841     -88.766837      0             -87.602851      21.076217    
      8690   248.60283     -88.661847      0             -87.60141      -166.59263    
      8700   297.99345     -88.873173      0             -87.602057     -284.79884    
      8710   294.3625      -88.857373      0             -87.601745      83.859439    
      8720   316.20285     -88.950553      0             -87.601763      245.1025     
      8730   270.95082     -88.757373      0             -87.601609      326.06824    
      8740   329.6874      -89.009156      0             -87.602846     -167.95919    
      8750   328.86532     -89.004776      0             -87.601973     -456.84375    
      8760   288.43785     -88.832435      0             -87.602079     -89.282689    
      8770   187.92528     -88.40237       0             -87.600759      319.09333    
      8780   260.6608      -88.713647      0             -87.601776      286.94565    
      8790   349.85445     -89.095459      0             -87.603126     -272.94968    
      8800   253.27211     -88.681569      0             -87.601215     -167.49531    
      8810   295.80865     -88.864525      0             -87.602728      23.76495     
      8820   278.85741     -88.791312      0             -87.601822      150.72101    
      8830   319.79363     -88.966674      0             -87.602568      57.482159    
      8840   344.36772     -89.071789      0             -87.602859     -103.58135    
      8850   291.96977     -88.847757      0             -87.602335     -27.628536    
      8860   315.21155     -88.947106      0             -87.602544     -100.48298    
      8870   271.90934     -88.760953      0             -87.601101      7.7809348    
      8880   241.91404     -88.633628      0             -87.601723      177.38467    
      8890   239.58029     -88.623701      0             -87.601751      52.50026     
      8900   285.36298     -88.820207      0             -87.602967     -210.78826    
      8910   283.99833     -88.81398       0             -87.602562     -192.53437    
      8920   315.56324     -88.947992      0             -87.60193      -46.437304    
      8930   338.72356     -89.047117      0             -87.602263      267.67117    
      8940   330.73069     -89.013309      0             -87.602549      295.17812    
      8950   310.44176     -88.926694      0             -87.602478      63.963812    
      8960   252.93087     -88.681054      0             -87.602156     -266.22007    
      8970   245.51894     -88.64932       0             -87.602038     -405.501      
      8980   328.69471     -89.005436      0             -87.603361     -104.89148    
      8990   317.33332     -88.955475      0             -87.601863      436.99142    
      9000   287.30065     -88.82686       0             -87.601355      421.64138    
      9010   310.04157     -88.92482       0             -87.602311     -31.87134     
      9020   276.65331     -88.782042      0             -87.601954     -482.61516    
      9030   271.63756     -88.761176      0             -87.602483     -383.22031    
      9040   249.2502      -88.664968      0             -87.60177       175.34932    
      9050   298.51807     -88.875149      0             -87.601795      384.6713     
      9060   310.21523     -88.9247        0             -87.601451      199.78091    
      9070   263.71605     -88.725944      0             -87.601041     -155.60159    
      9080   269.03902     -88.749278      0             -87.601669     -273.59494    
      9090   304.23978     -88.900204      0             -87.602443     -107.05978    
      9100   309.53927     -88.922603      0             -87.602237      220.94623    
      9110   271.51503     -88.758864      0             -87.600694      274.5124     
      9120   290.6297      -88.840645      0             -87.60094       15.60577     
      9130   294.67843     -88.858796      0             -87.60182      -310.43686    
      9140   254.08221     -88.68551       0             -87.601701     -200.34621    
      9150   267.46522     -88.742793      0             -87.601897      186.12117    
      9160   329.98318     -89.010964      0             -87.603392      209.73121    
      9170   308.26429     -88.916917      0             -87.60199       84.58776     
      9180   308.51715     -88.917949      0             -87.601943     -226.08083    
      9190   303.20766     -88.896264      0             -87.602906     -167.29681    
      9200   230.324       -88.583764      0             -87.601297      103.54381    
      9210   257.59785     -88.700637      0             -87.601832      96.202598    
      9220   301.02098     -88.886751      0             -87.60272      -9.417304     
      9230   305.9251      -88.906629      0             -87.60168       6.0131427    
      9240   280.60816     -88.798335      0             -87.601377      29.853355    
      9250   346.25466     -89.0815        0             -87.604521     -66.26944     
      9260   254.2536      -88.687013      0             -87.602473      28.644267    
      9270   281.86479     -88.804476      0             -87.602158     -69.819924    
      9280   327.00374     -88.997831      0             -87.602968      56.999321    
      9290   275.38154     -88.776101      0             -87.601438      73.446169    
      9300   276.15538     -88.77952       0             -87.601556      17.912059    
      9310   320.5062      -88.969854      0             -87.602707     -196.78635    
      9320   305.28395     -88.904546      0             -87.602331     -90.955569    
      9330   277.40964     -88.785172      0             -87.601858      97.105285    
      9340   264.86019     -88.731206      0             -87.601422      166.15408    
      9350   270.98182     -88.756772      0             -87.600877      149.73413    
      9360   275.73127     -88.77668       0             -87.600525     -231.88435    
      9370   283.9806      -88.813213      0             -87.60187      -34.0708      
      9380   307.18724     -88.913293      0             -87.602959     -2.7826867    
      9390   300.46549     -88.884031      0             -87.60237       71.209502    
      9400   292.64667     -88.851017      0             -87.602708      100.76562    
      9410   280.15839     -88.798076      0             -87.603037     -53.982386    
      9420   314.60807     -88.944462      0             -87.602475     -32.061986    
      9430   299.12454     -88.877846      0             -87.601905     -41.883794    
      9440   259.54961     -88.708755      0             -87.601624      107.97327    
      9450   276.9279      -88.783451      0             -87.602192     -12.502206    
      9460   279.6097      -88.794721      0             -87.602022     -141.01213    
      9470   273.3829      -88.76811       0             -87.601972     -49.525569    
      9480   277.06698     -88.784489      0             -87.602636      69.544643    
      9490   304.15438     -88.900115      0             -87.602718      91.132095    
      9500   314.69286     -88.944726      0             -87.602377     -63.950829    
      9510   265.06344     -88.731621      0             -87.60097       15.706757    
      9520   299.57007     -88.879327      0             -87.601486      39.587484    
      9530   312.45548     -88.934447      0             -87.601642     -0.67445238   
      9540   287.62224     -88.828651      0             -87.601774     -27.58254     
      9550   268.14606     -88.745367      0             -87.601567     -3.6915746    
      9560   328.19446     -89.002967      0             -87.603025     -18.475807    
      9570   275.17823     -88.776042      0             -87.602246      22.12954     
      9580   277.99653     -88.78794       0             -87.602122      126.00662    
      9590   328.0866      -89.002309      0             -87.602828      43.195479    
      9600   252.98093     -88.680193      0             -87.601082     -50.041235    
      9610   302.40064     -88.893104      0             -87.603188     -284.02842    
      9620   249.82753     -88.667499      0             -87.601838     -77.31993     
      9630   311.56403     -88.932103      0             -87.6031        93.2933      
      9640   278.41567     -88.78944       0             -87.601834      244.63749    
      9650   373.43826     -89.196147      0             -87.603214      32.51347     
      9660   322.50154     -88.977581      0             -87.601923     -60.117191    
      9670   218.28843     -88.531875      0             -87.600747     -71.099618    
      9680   240.39098     -88.626441      0             -87.601033     -134.37115    
      9690   325.5374      -88.991126      0             -87.602518     -76.615602    
      9700   318.45771     -88.961485      0             -87.603076      143.11517    
      9710   263.95295     -88.727963      0             -87.60205       323.93543    
      9720   343.4357      -89.068191      0             -87.603237     -13.247514    
      9730   310.01603     -88.924841      0             -87.602441     -218.42455    
      9740   241.46876     -88.631303      0             -87.601298     -176.64219    
      9750   306.26458     -88.90907       0             -87.602672     -72.044075    
      9760   281.54411     -88.802774      0             -87.601824      214.91767    
      9770   318.27227     -88.960291      0             -87.602674      114.04142    
      9780   326.18922     -88.993729      0             -87.602341     -68.296259    
      9790   264.02002     -88.727187      0             -87.600987      5.6653688    
      9800   259.25722     -88.707035      0             -87.601151      5.9458066    
      9810   286.39836     -88.824061      0             -87.602404     -160.02079    
      9820   309.65615     -88.923938      0             -87.603074     -1.6504456    
      9830   299.17639     -88.878827      0             -87.602665      154.98735    
      9840   294.18562     -88.857151      0             -87.602277      133.40219    
      9850   280.6291      -88.798365      0             -87.601318     -83.098555    
      9860   277.50258     -88.784881      0             -87.60117      -124.21535    
      9870   301.91906     -88.890239      0             -87.602378      9.0029668    
      9880   278.69995     -88.790685      0             -87.601867     -27.752807    
      9890   322.24372     -88.978039      0             -87.603481     -17.338061    
      9900   301.3894      -88.888972      0             -87.60337      -13.36962     
      9910   267.31633     -88.742737      0             -87.602476      90.910656    
      9920   301.10659     -88.887249      0             -87.602853     -3.7277272    
      9930   268.95749     -88.748669      0             -87.601408     -1.1857977    
      9940   311.86072     -88.933761      0             -87.603493     -100.72258    
      9950   284.56679     -88.816482      0             -87.602638      23.046877    
      9960   362.27361     -89.149528      0             -87.604219     -17.531098    
      9970   309.45511     -88.923203      0             -87.603196      49.20017     
      9980   270.9431      -88.757868      0             -87.602137      79.522589    
      9990   294.62646     -88.858756      0             -87.602002     -13.695676    
     10000   304.40234     -88.900093      0             -87.601639     -34.879705    
     10001   306.11185     -88.907604      0             -87.601858     -31.862612    
Loop time of 0.0901859 on 4 procs for 10000 steps with 34 atoms

Performance: 47901.069 ns/day, 0.001 hours/ns, 110882.104 timesteps/s, 3.770 Matom-step/s
97.0% CPU use with 4 MPI tasks x 1 OpenMP threads

MPI task timing breakdown:
Section |  min time  |  avg time  |  max time  |%varavg| %total
---------------------------------------------------------------
Pair    | 0.037849   | 0.046648   | 0.052117   |   2.7 | 51.72
Neigh   | 0          | 0          | 0          |   0.0 |  0.00
Comm    | 0.028028   | 0.03249    | 0.040612   |   2.9 | 36.03
Output  | 0.0031341  | 0.0034538  | 0.0043178  |   0.8 |  3.83
Modify  | 0.0012633  | 0.0013457  | 0.0014669  |   0.2 |  1.49
Other   |            | 0.006249   |            |       |  6.93

Nlocal:            8.5 ave          10 max           7 min
Histogram: 1 0 0 1 0 0 1 0 0 1
Nghost:           59.5 ave          61 max          57 min
Histogram: 1 0 0 0 0 0 0 2 0 1
Neighs:         140.25 ave         236 max          21 min
Histogram: 1 0 0 0 1 0 0 1 0 1

Total # of neighbors = 561
Ave neighs/atom = 16.5
Neighbor list builds = 0
Dangerous builds = 0
Total wall time: 0:00:00
