# 3d Lennard-Jones melt

variable	x index 10
variable	y index 10
variable	z index 10

timer		off

units		lj
atom_style	atomic

lattice		fcc 0.8442
region		box block 0 ${x} 0 ${y} 0 ${z}
create_box	1 box
create_atoms	1 box
mass		1 1.0

velocity	all create 1.44 87287 loop geom

pair_style	lj/cut 2.5
pair_coeff	1 1 1.0 1.0 2.5

neighbor	0.3 bin
neigh_modify	delay 0 every 10 check no

fix		1 all nve

info		all
run		100
