units metal
boundary p p p

atom_style full
read_data ni.lmp

pair_style metatensor nickel-lj.pt
pair_coeff 1 1   28

timestep 0.001
fix 1 all nve

thermo 1
thermo_style custom step temp pe etotal # press vol

dump 1 all xyz 1 trajectory.xyz

run 100
