LAMMPS (4 Jul 2026 - Development - patch_4Jul2026-848-gd03be1b44b)
  using 1 OpenMP thread(s) per MPI task
# ------ 2D dam break ------ #

dimension          2
units              lj
atom_style         rheo
boundary           f s p
comm_modify        vel yes
newton             off

# ------ Create simulation box ------ #

variable           n equal 1.0
variable           cut equal 2.2
variable           dx equal 3.0

region             box block -1 150 -1 80 -0.1 0.1 units box
create_box         2 box
Created orthogonal box = (-1 -1 -0.1) to (150 80 0.1)
  1 by 1 by 1 MPI processor grid
lattice            hex ${n}
lattice            hex 1
Lattice spacing in x,y,z = 1.0745699 1.8612097 1.0745699

region             fluid block $(xlo+v_dx+1.0) $(xlo+40.0) $(ylo+v_dx+1.0) $(yhi-20.0) EDGE EDGE units box
region             fluid block 3 $(xlo+40.0) $(ylo+v_dx+1.0) $(yhi-20.0) EDGE EDGE units box
region             fluid block 3 39 $(ylo+v_dx+1.0) $(yhi-20.0) EDGE EDGE units box
region             fluid block 3 39 2.991900000000000226 $(yhi-20.0) EDGE EDGE units box
region             fluid block 3 39 2.991900000000000226 60.008099999999998886 EDGE EDGE units box
region             walls1 block $(xlo+v_dx) $(xhi-v_dx) $(ylo+v_dx) $(yhi-v_dx) EDGE EDGE side out units box
region             walls1 block 2 $(xhi-v_dx) $(ylo+v_dx) $(yhi-v_dx) EDGE EDGE side out units box
region             walls1 block 2 147 $(ylo+v_dx) $(yhi-v_dx) EDGE EDGE side out units box
region             walls1 block 2 147 1.9919000000000000039 $(yhi-v_dx) EDGE EDGE side out units box
region             walls1 block 2 147 1.9919000000000000039 77.008099999999998886 EDGE EDGE side out units box
region             walls2 block EDGE EDGE EDGE $(yhi-v_dx) EDGE EDGE side in units box
region             walls2 block EDGE EDGE EDGE 77.008099999999998886 EDGE EDGE side in units box
region             walls intersect 2 walls1 walls2

create_atoms       1 region fluid
Created 2044 atoms
  using lattice units in orthogonal box = (-1 -1.0081 -0.1) to (150 80.0081 0.1)
  create_atoms CPU = 0.000 seconds
create_atoms       2 region walls
Created 1002 atoms
  using lattice units in orthogonal box = (-1 -1.0081 -0.1) to (150 80.0081 0.1)
  create_atoms CPU = 0.000 seconds

group              fluid type 1
2044 atoms in group fluid
group              rig type 2
1002 atoms in group rig

# ------ Model parameters ------ #

variable           rho0 equal 1.0
variable           mp equal ${rho0}/${n}
variable           mp equal 1/${n}
variable           mp equal 1/1
variable           cs equal 1.0
variable           zeta equal 0.1
variable           dt_max equal  0.1*${cut}/${cs}/3
variable           dt_max equal  0.1*2.2/${cs}/3
variable           dt_max equal  0.1*2.2/1/3
variable           eta equal 0.1
variable           Dr equal 0.1

mass               1 ${mp}
mass               1 1
mass               2 $(2*v_mp)
mass               2 2
set                group all rheo/rho ${rho0}
set                group all rheo/rho 1
Setting atom values ...
  3046 settings made for rheo/rho

set                group all rheo/status 0
Setting atom values ...
  3046 settings made for rheo/status
set                group rig rheo/status 1
Setting atom values ...
  1002 settings made for rheo/status

timestep           ${dt_max}
timestep           0.0733333333333333

pair_style         rheo ${cut} artificial/visc ${zeta} #rho/damp ${Dr}
pair_style         rheo 2.2 artificial/visc ${zeta} 
pair_style         rheo 2.2 artificial/visc 0.1 
pair_coeff         * *

# ------ Fixes & computes ------ #

fix                1 all rheo ${cut} quintic 10                               surface/detection coordination 22 8                               rho/sum
fix                1 all rheo 2.2 quintic 10                               surface/detection coordination 22 8                               rho/sum
fix                2 all rheo/viscosity * constant ${eta}
fix                2 all rheo/viscosity * constant 0.1
fix                3 all rheo/pressure * linear
fix                4 all gravity 1e-3 vector 0 -1 0
fix                5 rig setforce 0.0 0.0 0.0
fix                6 all enforce2d

compute            rho all rheo/property/atom rho
compute            p all rheo/property/atom pressure
compute            surf all rheo/property/atom surface
compute            sn all rheo/property/atom surface/n/x surface/n/y

# ------ Output & Run ------ #

thermo             20
thermo_style       custom step time ke press

#dump               1 all custom 200 atomDump id type x y vx vy fx fy c_rho c_surf c_p c_sn[*]

run                30000

CITE-CITE-CITE-CITE-CITE-CITE-CITE-CITE-CITE-CITE-CITE-CITE-CITE

Your simulation uses code contributions which should be cited:

- RHEO package: https://doi.org/10.1063/5.0228823

@article{Palermo2024,
 journal = {Physics of Fluids},
 title = {Reproducing hydrodynamics and elastic objects: A hybrid mesh-free model framework for dynamic multi-phase flows},
 volume = {36},
 number = {11},
 pages = {113337},
 year = {2024},
 issn = {1070-6631},
 doi = {https://doi.org/10.1063/5.0228823},
 author = {Palermo, Eric T. and Wolf, Ki T. and Clemmer, Joel T. and O'Connor, Thomas C.},
}

CITE-CITE-CITE-CITE-CITE-CITE-CITE-CITE-CITE-CITE-CITE-CITE-CITE

Generated 0 of 1 mixed pair_coeff terms from geometric mixing rule
Neighbor list info ...
  update: every = 1 steps, delay = 0 steps, check = yes
  max neighbors/atom: 2000, page size: 100000
  master list distance cutoff = 2.5
  ghost atom cutoff = 2.5
  binsize = 1.25, bins = 121 65 1
  5 neighbor lists, perpetual/occasional/extra = 5 0 0
  (1) pair rheo, perpetual, half/full from (2)
      attributes: half, newton off
      pair build: halffull/newtoff
      stencil: none
      bin: none
  (2) compute RHEO/KERNEL, perpetual
      attributes: full, newton off
      pair build: full/bin/atomonly
      stencil: full/bin/2d
      bin: standard
  (3) compute RHEO/GRAD, perpetual, copy from (1)
      attributes: half, newton off
      pair build: copy
      stencil: none
      bin: none
  (4) compute RHEO/RHO/SUM, perpetual, copy from (1)
      attributes: half, newton off
      pair build: copy
      stencil: none
      bin: none
  (5) compute RHEO/SURFACE, perpetual, copy from (1)
      attributes: half, newton off
      pair build: copy
      stencil: none
      bin: none
Per MPI rank memory allocation (min/avg/max) = 5.737 | 5.737 | 5.737 Mbytes
   Step          Time          KinEng         Press     
         0   0              0             -2.4712318e-06
        20   1.4666667      0.00032511552  8.1441412e-05
        40   2.9333333      6.305e-05      1.1136591e-05
        60   4.4            5.9297363e-05  1.818661e-05 
        80   5.8666667      4.6335505e-05  1.2965852e-05
       100   7.3333333      3.8427958e-05  8.1174595e-06
       120   8.8            4.6488008e-05  1.1667872e-05
       140   10.266667      4.9644545e-05  1.2238188e-05
       160   11.733333      5.8290119e-05  1.3035102e-05
       180   13.2           6.7528716e-05  1.5301109e-05
       200   14.666667      7.8558074e-05  1.7891358e-05
       220   16.133333      9.0502857e-05  2.0175279e-05
       240   17.6           0.00010383362  2.3166079e-05
       260   19.066667      0.00011877679  2.6685533e-05
       280   20.533333      0.00013438545  3.0289276e-05
       300   22             0.00015041935  3.4145453e-05
       320   23.466667      0.00016855814  3.8601608e-05
       340   24.933333      0.00018753753  4.3255884e-05
       360   26.4           0.00020643423  4.7913812e-05
       380   27.866667      0.00022727663  5.3057345e-05
       400   29.333333      0.00024876119  5.8328203e-05
       420   30.8           0.00027042977  6.3643203e-05
       440   32.266667      0.00029370537  6.9366737e-05
       460   33.733333      0.00031811541  7.5363278e-05
       480   35.2           0.00034326028  8.1542526e-05
       500   36.666667      0.00036860906  8.7772707e-05
       520   38.133333      0.0003942454   9.4052955e-05
       540   39.6           0.00042055645  0.00010044285
       560   41.066667      0.00044731485  0.00010686022
       580   42.533333      0.00047469362  0.00011335082
       600   44             0.00050281255  0.00011996858
       620   45.466667      0.00053150026  0.00012669064
       640   46.933333      0.00056055314  0.0001334649 
       660   48.4           0.00058981732  0.00014024027
       680   49.866667      0.00061933416  0.00014700649
       700   51.333333      0.00064912894  0.0001537607 
       720   52.8           0.00067914136  0.00016050568
       740   54.266667      0.00070940662  0.00016727334
       760   55.733333      0.00073994669  0.00017406674
       780   57.2           0.00077075415  0.00018086007
       800   58.666667      0.0008018914   0.00018765485
       820   60.133333      0.00083343362  0.00019451466
       840   61.6           0.00086548419  0.0002015788 
       860   63.066667      0.00089816124  0.00020900165
       880   64.533333      0.00093148977  0.0002168372 
       900   66             0.00096539212  0.00022500108
       920   67.466667      0.00099981785  0.00023334523
       940   68.933333      0.0010348644   0.00024175287
       960   70.4           0.0010706754   0.00025017999
       980   71.866667      0.0011072581   0.00025863335
      1000   73.333333      0.0011445127   0.00026715894
      1020   74.8           0.0011823428   0.00028238735
      1040   76.266667      0.0012206735   0.00029125077
      1060   77.733333      0.0012594802   0.00030028182
      1080   79.2           0.001298868    0.00030953326
      1100   80.666667      0.0013390383   0.00031907964
      1120   82.133333      0.0013801634   0.00032899773
      1140   83.6           0.001422309    0.0003393236 
      1160   85.066667      0.0014654158   0.00035002312
      1180   86.533333      0.0015093557   0.00036102035
      1200   88             0.0015540312   0.00037225397
      1220   89.466667      0.0015994327   0.00038370977
      1240   90.933333      0.0016455967   0.00039539212
      1260   92.4           0.0016924855   0.0004072828 
      1280   93.866667      0.0017399164   0.00041932346
      1300   95.333333      0.0017876277   0.00043144621
      1320   96.8           0.0018354799   0.00044363698
      1340   98.266667      0.001883632    0.00045597049
      1360   99.733333      0.0019324584   0.00046856516
      1380   101.2          0.0019822402   0.00048149945
      1400   102.66667      0.0020329245   0.00049474261
      1420   104.13333      0.0020842944   0.00050821358
      1440   105.6          0.0021363452   0.00052189314
      1460   107.06667      0.0021892039   0.00053579569
      1480   108.53333      0.0022426862   0.00054986358
      1500   110            0.0022963873   0.00056399961
      1520   111.46667      0.0023502698   0.00057819526
      1540   112.93333      0.0024046564   0.00059252796
      1560   114.4          0.0024596327   0.00060702379
      1580   115.86667      0.0025149922   0.00062162908
      1600   117.33333      0.0025706757   0.00063634464
      1620   118.8          0.0026266777   0.0006511797 
      1640   120.26667      0.002682847    0.00066605897
      1660   121.73333      0.0027392572   0.00068099207
      1680   123.2          0.0027963112   0.00069613261
      1700   124.66667      0.0028540281   0.00071149202
      1720   126.13333      0.0029119429   0.0007269106 
      1740   127.6          0.0029700277   0.00074236776
      1760   129.06667      0.0030286675   0.00075800154
      1780   130.53333      0.0030876387   0.00077376634
      1800   132            0.0031464754   0.00078953274
      1820   133.46667      0.0032053937   0.0008053403 
      1840   134.93333      0.0032646645   0.00082123892
      1860   136.4          0.0033239614   0.00083712174
      1880   137.86667      0.003382957    0.000852893  
      1900   139.33333      0.0034418072   0.00086859767
      1920   140.8          0.0035007717   0.00088431909
      1940   142.26667      0.0035598      0.0009000365 
      1960   143.73333      0.0036186515   0.00091568011
      1980   145.2          0.0036773382   0.00093124928
      2000   146.66667      0.0037361146   0.00094681588
      2020   148.13333      0.0037949944   0.00096590293
      2040   149.6          0.0038538047   0.0009811714 
      2060   151.06667      0.0039123982   0.00099638829
      2080   152.53333      0.0039705441   0.0010115144 
      2100   154            0.0040284629   0.0010265886 
      2120   155.46667      0.004086794    0.0010417569 
      2140   156.93333      0.0041453577   0.0010569905 
      2160   158.4          0.0042032666   0.0010720525 
      2180   159.86667      0.0042604916   0.0010869264 
      2200   161.33333      0.0043176719   0.0011017575 
      2220   162.8          0.0043749559   0.0011165576 
      2240   164.26667      0.0044320912   0.0011312835 
      2260   165.73333      0.004488907    0.001145936  
      2280   167.2          0.0045454608   0.0011604928 
      2300   168.66667      0.0046019826   0.0011750236 
      2320   170.13333      0.0046583801   0.0011895557 
      2340   171.6          0.0047143295   0.0012039844 
      2360   173.06667      0.0047700518   0.001218335  
      2380   174.53333      0.004825842    0.0012327072 
      2400   176            0.0048814352   0.0012469866 
      2420   177.46667      0.0049368699   0.0012611474 
      2440   178.93333      0.0049923837   0.001275297  
      2460   180.4          0.0050476678   0.0012893281 
      2480   181.86667      0.0051028744   0.0013032509 
      2500   183.33333      0.0051583598   0.0013172089 
      2520   184.8          0.0052134538   0.0013310328 
      2540   186.26667      0.005268092    0.0013446717 
      2560   187.73333      0.0053232608   0.0013583779 
      2580   189.2          0.0053784614   0.001372067  
      2600   190.66667      0.0054323859   0.0013854292 
      2620   192.13333      0.005485368    0.0013985404 
      2640   193.6          0.005538147    0.0014115862 
      2660   195.06667      0.0055903241   0.0014244627 
      2680   196.53333      0.0056420605   0.0014371903 
      2700   198            0.0056939656   0.0014499597 
      2720   199.46667      0.0057448558   0.001462521  
      2740   200.93333      0.005794243    0.0014747421 
      2760   202.4          0.0058437202   0.0014870078 
      2780   203.86667      0.0058927061   0.001499154  
      2800   205.33333      0.0059400654   0.001510873  
      2820   206.8          0.0059873268   0.0015225468 
      2840   208.26667      0.0060345695   0.0015341714 
      2860   209.73333      0.0060807206   0.001545471  
      2880   211.2          0.0061264208   0.0015566496 
      2900   212.66667      0.0061716649   0.0015676885 
      2920   214.13333      0.0062163267   0.0015785731 
      2940   215.6          0.0062608002   0.0015894753 
      2960   217.06667      0.0063044467   0.0016002332 
      2980   218.53333      0.0063477253   0.0016109633 
      3000   220            0.0063915934   0.001621944  
      3020   221.46667      0.0064353602   0.0016405927 
      3040   222.93333      0.0064788373   0.0016515896 
      3060   224.4          0.0065223779   0.0016626203 
      3080   225.86667      0.006565856    0.001673616  
      3100   227.33333      0.0066091386   0.0016845507 
      3120   228.8          0.0066522179   0.0016954057 
      3140   230.26667      0.006695239    0.001706268  
      3160   231.73333      0.0067377973   0.0017170721 
      3180   233.2          0.0067801755   0.0017278792 
      3200   234.66667      0.0068228778   0.0017388397 
      3220   236.13333      0.0068649943   0.0017496954 
      3240   237.6          0.0069073067   0.0017606363 
      3260   239.06667      0.0069504155   0.0017718503 
      3280   240.53333      0.0069919977   0.001782786  
      3300   242            0.0070322825   0.0017935617 
      3320   243.46667      0.0070736559   0.0018046821 
      3340   244.93333      0.0071154711   0.001815924  
      3360   246.4          0.0071557915   0.0018268888 
      3380   247.86667      0.0071948821   0.0018375492 
      3400   249.33333      0.0072335904   0.0018480722 
      3420   250.8          0.0072712368   0.0018583299 
      3440   252.26667      0.0073083266   0.0018684082 
      3460   253.73333      0.0073452523   0.0018783892 
      3480   255.2          0.0073809447   0.0018879746 
      3500   256.66667      0.0074161748   0.001897386  
      3520   258.13333      0.0074509019   0.001906638  
      3540   259.6          0.0074845853   0.001915592  
      3560   261.06667      0.0075182723   0.0019245862 
      3580   262.53333      0.0075509676   0.0019333427 
      3600   264            0.0075827043   0.0019418477 
      3620   265.46667      0.0076142545   0.0019503568 
      3640   266.93333      0.007644864    0.0019587234 
      3660   268.4          0.0076758971   0.0019672473 
      3680   269.86667      0.0077074991   0.0019759186 
      3700   271.33333      0.0077378509   0.0019844075 
      3720   272.8          0.0077674252   0.0019928056 
      3740   274.26667      0.0077972928   0.0020012917 
      3760   275.73333      0.0078272445   0.0020097703 
      3780   277.2          0.0078570847   0.0020181326 
      3800   278.66667      0.0078869318   0.0020264501 
      3820   280.13333      0.0079169645   0.0020347644 
      3840   281.6          0.0079473319   0.0020431372 
      3860   283.06667      0.0079778531   0.0020515187 
      3880   284.53333      0.0080083112   0.0020598286 
      3900   286            0.0080387085   0.0020681492 
      3920   287.46667      0.0080693433   0.0020765669 
      3940   288.93333      0.0081009997   0.00208528   
      3960   290.4          0.0081324269   0.0020939841 
      3980   291.86667      0.0081623754   0.002102392  
      4000   293.33333      0.0081927273   0.002110847  
      4020   294.8          0.0082244917   0.0021192987 
      4040   296.26667      0.0082558675   0.0021277734 
      4060   297.73333      0.0082865743   0.0021360071 
      4080   299.2          0.008317834    0.002144362  
      4100   300.66667      0.0083487592   0.0021526124 
      4120   302.13333      0.0083791443   0.0021607046 
      4140   303.6          0.0084095784   0.002168748  
      4160   305.06667      0.0084401937   0.0021767696 
      4180   306.53333      0.0084709096   0.0021848073 
      4200   308            0.0085008314   0.0021925532 
      4220   309.46667      0.0085305774   0.0022002267 
      4240   310.93333      0.0085600907   0.0022077977 
      4260   312.4          0.0085890462   0.0022151968 
      4280   313.86667      0.0086176748   0.0022225032 
      4300   315.33333      0.0086457386   0.0022296198 
      4320   316.8          0.0086737585   0.0022367722 
      4340   318.26667      0.0087010807   0.0022436958 
      4360   319.73333      0.0087280644   0.0022505255 
      4380   321.2          0.0087546499   0.0022572343 
      4400   322.66667      0.008780831    0.0022637502 
      4420   324.13333      0.0088071825   0.0022702901 
      4440   325.6          0.0088321298   0.0022763558 
      4460   327.06667      0.0088572755   0.0022824271 
      4480   328.53333      0.0088825034   0.0022884771 
      4500   330            0.008906397    0.0022940999 
      4520   331.46667      0.0089309496   0.0022999265 
      4540   332.93333      0.0089547286   0.0023055302 
      4560   334.4          0.0089780019   0.0023110194 
      4580   335.86667      0.0090022071   0.0023168004 
      4600   337.33333      0.0090250403   0.0023222174 
      4620   338.8          0.0090470902   0.0023275212 
      4640   340.26667      0.009069282    0.0023328916 
      4660   341.73333      0.0090907611   0.0023380738 
      4680   343.2          0.0091124427   0.0023433476 
      4700   344.66667      0.0091339496   0.0023486026 
      4720   346.13333      0.0091537311   0.0023534891 
      4740   347.6          0.009173263    0.00235835   
      4760   349.06667      0.0091939188   0.002363537  
      4780   350.53333      0.0092136259   0.0023685502 
      4800   352            0.0092318228   0.0023732515 
      4820   353.46667      0.0092503682   0.0023780758 
      4840   354.93333      0.0092688782   0.002382931  
      4860   356.4          0.0092869353   0.0023877313 
      4880   357.86667      0.0093055447   0.0023926614 
      4900   359.33333      0.0093236429   0.0023974992 
      4920   360.8          0.0093411573   0.0024022297 
      4940   362.26667      0.0093591279   0.002407085  
      4960   363.73333      0.0093766226   0.0024118624 
      4980   365.2          0.0093942657   0.0024166717 
      5000   366.66667      0.0094124151   0.0024215544 
      5020   368.13333      0.0094298866   0.0024280366 
      5040   369.6          0.0094473787   0.0024327013 
      5060   371.06667      0.0094652437   0.0024374676 
      5080   372.53333      0.0094825396   0.0024421161 
      5100   374            0.0095005196   0.002446937  
      5120   375.46667      0.0095190441   0.0024519618 
      5140   376.93333      0.0095367698   0.0024568187 
      5160   378.4          0.009555275    0.0024619338 
      5180   379.86667      0.0095740082   0.0024671178 
      5200   381.33333      0.009592423    0.0024722822 
      5220   382.8          0.0096109812   0.0024775543 
      5240   384.26667      0.0096294532   0.0024827904 
      5260   385.73333      0.0096482998   0.0024881554 
      5280   387.2          0.0096670547   0.0024934596 
      5300   388.66667      0.0096858667   0.0024988464 
      5320   390.13333      0.0097040351   0.0025040611 
      5340   391.6          0.0097221033   0.002509263  
      5360   393.06667      0.0097405149   0.002514602  
      5380   394.53333      0.0097580545   0.002519709  
      5400   396            0.0097755466   0.0025248511 
      5420   397.46667      0.0097930161   0.0025299277 
      5440   398.93333      0.0098107329   0.0025350737 
      5460   400.4          0.0098284234   0.0025401861 
      5480   401.86667      0.0098451555   0.0025449961 
      5500   403.33333      0.0098622191   0.0025498909 
      5520   404.8          0.0098790618   0.0025546849 
      5540   406.26667      0.0098957203   0.0025593658 
      5560   407.73333      0.0099131987   0.002564295  
      5580   409.2          0.0099293333   0.0025687896 
      5600   410.66667      0.0099456607   0.0025733127 
      5620   412.13333      0.0099626015   0.0025779838 
      5640   413.6          0.0099788857   0.0025824058 
      5660   415.06667      0.0099954819   0.0025869233 
      5680   416.53333      0.010011773    0.0025912475 
      5700   418            0.010028219    0.0025956204 
      5720   419.46667      0.010044251    0.0025997906 
      5740   420.93333      0.010059923    0.002603851  
      5760   422.4          0.010075731    0.0026078967 
      5780   423.86667      0.010091249    0.0026118438 
      5800   425.33333      0.010105814    0.0026155085 
      5820   426.8          0.010120802    0.00261923   
      5840   428.26667      0.010135689    0.0026229359 
      5860   429.73333      0.010150024    0.0026264233 
      5880   431.2          0.010164737    0.0026300465 
      5900   432.66667      0.010178385    0.0026332877 
      5920   434.13333      0.010192501    0.0026367071 
      5940   435.6          0.010205632    0.0026397869 
      5960   437.06667      0.010218121    0.0026427166 
      5980   438.53333      0.010230926    0.0026457184 
      6000   440            0.010243385    0.002648609  
      6020   441.46667      0.01025573     0.002650631  
      6040   442.93333      0.010267499    0.0026532207 
      6060   444.4          0.010278357    0.0026558437 
      6080   445.86667      0.010270091    0.002654442  
      6100   447.33333      0.010248075    0.0026498233 
      6120   448.8          0.010229008    0.0026443534 
      6140   450.26667      0.010176792    0.0026297461 
      6160   451.73333      0.010159391    0.002624527  
      6180   453.2          0.010132303    0.0026163243 
      6200   454.66667      0.01009809     0.0026008328 
      6220   456.13333      0.010050263    0.0025876964 
      6240   457.6          0.01002274     0.0025873811 
      6260   459.06667      0.010000392    0.002585039  
      6280   460.53333      0.0099589535   0.0025756058 
      6300   462            0.0099380259   0.0025679889 
      6320   463.46667      0.0099270877   0.0025610951 
      6340   464.93333      0.0098975308   0.0025515984 
      6360   466.4          0.0098650245   0.002543717  
      6380   467.86667      0.0098389026   0.0025370199 
      6400   469.33333      0.0098142368   0.0025304482 
      6420   470.8          0.0097805883   0.0025233387 
      6440   472.26667      0.0097496774   0.0025165805 
      6460   473.73333      0.0097258086   0.0025108348 
      6480   475.2          0.0096982877   0.0025055306 
      6500   476.66667      0.0096658636   0.0024994142 
      6520   478.13333      0.0096339461   0.0024906194 
      6540   479.6          0.0095983247   0.0024803656 
      6560   481.06667      0.009564946    0.0024701744 
      6580   482.53333      0.0095341413   0.0024611202 
      6600   484            0.0095001163   0.0024519423 
      6620   485.46667      0.0094673655   0.0024441987 
      6640   486.93333      0.0094442339   0.0024403809 
      6660   488.4          0.0094176505   0.0024361751 
      6680   489.86667      0.009383762    0.002429038  
      6700   491.33333      0.0093516962   0.0024201177 
      6720   492.8          0.0093219129   0.0024105735 
      6740   494.26667      0.0092950869   0.0024023382 
      6760   495.73333      0.0092673941   0.0023950572 
      6780   497.2          0.0092358913   0.002387999  
      6800   498.66667      0.0092075978   0.0023813612 
      6820   500.13333      0.0091839466   0.0023744586 
      6840   501.6          0.0091597633   0.002367359  
      6860   503.06667      0.0091339176   0.0023613886 
      6880   504.53333      0.0091045902   0.0023550357 
      6900   506            0.0090733425   0.0023475219 
      6920   507.46667      0.0090447209   0.0023399094 
      6940   508.93333      0.0090161164   0.0023323706 
      6960   510.4          0.0089888289   0.0023251679 
      6980   511.86667      0.0089630002   0.0023189312 
      7000   513.33333      0.0089340047   0.0023130291 
      7020   514.8          0.0089050481   0.0023037712 
      7040   516.26667      0.0088782599   0.0022968686 
      7060   517.73333      0.0088498749   0.002289656  
      7080   519.2          0.0088186493   0.0022815525 
      7100   520.66667      0.0087879346   0.0022729793 
      7120   522.13333      0.0087570835   0.0022641869 
      7140   523.6          0.0087241937   0.0022550517 
      7160   525.06667      0.0086897619   0.0022456724 
      7180   526.53333      0.0086548295   0.0022361352 
      7200   528            0.0086226607   0.0022269671 
      7220   529.46667      0.0085926298   0.002218459  
      7240   530.93333      0.0085620298   0.0022104825 
      7260   532.4          0.008530816    0.0022028506 
      7280   533.86667      0.0085000147   0.002195502  
      7300   535.33333      0.0084702698   0.0021880456 
      7320   536.8          0.0084394709   0.0021800599 
      7340   538.26667      0.0084062641   0.0021714005 
      7360   539.73333      0.0083723871   0.0021622161 
      7380   541.2          0.0083397122   0.0021527719 
      7400   542.66667      0.008307597    0.0021434561 
      7420   544.13333      0.008276432    0.002134916  
      7440   545.6          0.0082466317   0.0021274227 
      7460   547.06667      0.0082164387   0.0021202238 
      7480   548.53333      0.0081844103   0.0021128775 
      7500   550            0.0081504719   0.00210512   
      7520   551.46667      0.0081167866   0.0020970331 
      7540   552.93333      0.0080848171   0.002088901  
      7560   554.4          0.0080540215   0.0020808587 
      7580   555.86667      0.008023273    0.0020730191 
      7600   557.33333      0.0079924765   0.0020653706 
      7620   558.8          0.007961838    0.0020577843 
      7640   560.26667      0.0079305105   0.0020499434 
      7660   561.73333      0.0078987801   0.0020419622 
      7680   563.2          0.0078669221   0.0020340548 
      7700   564.66667      0.0078343814   0.002026244  
      7720   566.13333      0.0078008293   0.0020182119 
      7740   567.6          0.0077667967   0.0020098915 
      7760   569.06667      0.0077331492   0.0020014303 
      7780   570.53333      0.0077001493   0.0019928339 
      7800   572            0.0076674343   0.0019840534 
      7820   573.46667      0.0076348234   0.001975212  
      7840   574.93333      0.0076027791   0.0019664797 
      7860   576.4          0.0075718579   0.0019580673 
      7880   577.86667      0.0075420333   0.0019500657 
      7900   579.33333      0.0075124767   0.0019423375 
      7920   580.8          0.0074820483   0.0019346273 
      7940   582.26667      0.0074502357   0.0019267019 
      7960   583.73333      0.0074175558   0.0019185279 
      7980   585.2          0.0073848251   0.00191018   
      8000   586.66667      0.007352346    0.0019015919 
      8020   588.13333      0.0073201718   0.0018918065 
      8040   589.6          0.007288563    0.0018832183 
      8060   591.06667      0.0072571769   0.0018746255 
      8080   592.53333      0.0072252971   0.0018660144 
      8100   594            0.0071925777   0.0018573439 
      8120   595.46667      0.0071589227   0.001848567  
      8140   596.93333      0.0071243956   0.0018395819 
      8160   598.4          0.0070894221   0.0018303804 
      8180   599.86667      0.0070547921   0.0018211572 
      8200   601.33333      0.0070204352   0.0018119453 
      8220   602.8          0.0069853777   0.0018025533 
      8240   604.26667      0.0069497149   0.0017930493 
      8260   605.73333      0.0069143916   0.0017836581 
      8280   607.2          0.0068791277   0.0017742648 
      8300   608.66667      0.0068431543   0.0017646462 
      8320   610.13333      0.0068068584   0.0017549633 
      8340   611.6          0.0067703636   0.0017454013 
      8360   613.06667      0.0067324593   0.0017357372 
      8380   614.53333      0.0066929368   0.0017258652 
      8400   616            0.0066537061   0.0017161643 
      8420   617.46667      0.0066159516   0.0017068287 
      8440   618.93333      0.0065784188   0.0016974624 
      8460   620.4          0.0065397132   0.0016877269 
      8480   621.86667      0.0065004663   0.0016778196 
      8500   623.33333      0.006461834    0.0016680681 
      8520   624.8          0.0064235964   0.0016583886 
      8540   626.26667      0.006385396    0.0016486815 
      8560   627.73333      0.0063480379   0.0016390924 
      8580   629.2          0.00631219     0.0016297384 
      8600   630.66667      0.0062771534   0.0016163811 
      8620   632.13333      0.0062419447   0.0015973498 
      8640   633.6          0.0062065839   0.0015786486 
      8660   635.06667      0.0061715186   0.0015603133 
      8680   636.53333      0.0061368606   0.0015422917 
      8700   638            0.0061026099   0.001527532  
      8720   639.46667      0.0060688426   0.0015099975 
      8740   640.93333      0.0060354483   0.0014927457 
      8760   642.4          0.0060021203   0.0014757525 
      8780   643.86667      0.0059687199   0.0014590798 
      8800   645.33333      0.0059353164   0.0014428158 
      8820   646.8          0.0059019781   0.001426915  
      8840   648.26667      0.0058688248   0.0014138092 
      8860   649.73333      0.005836055    0.0013982282 
      8880   651.2          0.0058035813   0.0013828314 
      8900   652.66667      0.0057707792   0.0013675533 
      8920   654.13333      0.005737218    0.0013523498 
      8940   655.6          0.0057032752   0.0013373134 
      8960   657.06667      0.0056694823   0.0013225419 
      8980   658.53333      0.0056357422   0.0013102069 
      9000   660            0.0056016651   0.0012956796 
      9020   661.46667      0.0055672432   0.0012805223 
      9040   662.93333      0.0055328209   0.0012665155 
      9060   664.4          0.0054986184   0.0012527279 
      9080   665.86667      0.0054645431   0.0012391095 
      9100   667.33333      0.0054304191   0.0012256093 
      9120   668.8          0.0053963003   0.0012141529 
      9140   670.26667      0.0053624208   0.0012008837 
      9160   671.73333      0.0053288892   0.0011869676 
      9180   673.2          0.0052955268   0.0011752583 
      9200   674.66667      0.0052620263   0.0011615143 
      9220   676.13333      0.0052282541   0.0011498279 
      9240   677.6          0.0051942936   0.0011362173 
      9260   679.06667      0.005160307    0.0011246516 
      9280   680.53333      0.0051263727   0.0011112986 
      9300   682            0.0050924869   0.0010999358 
      9320   683.46667      0.0050586396   0.0010868956 
      9340   684.93333      0.0050248155   0.0010758227 
      9360   686.4          0.0049910132   0.0010631838 
      9380   687.86667      0.0049572829   0.0010524598 
      9400   689.33333      0.0049236547   0.0010402332 
      9420   690.8          0.0048900492   0.0010297856 
      9440   692.26667      0.0048563311   0.0010177965 
      9460   693.73333      0.0048225186   0.0010074478 
      9480   695.2          0.0047888425   0.00099567409
      9500   696.66667      0.0047554587   0.00098560443
      9520   698.13333      0.0047222355   0.00097423942
      9540   699.6          0.0046889404   0.0009644711 
      9560   701.06667      0.0046555701   0.00095339902
      9580   702.53333      0.0046222816   0.00094384686
      9600   704            0.0045891239   0.0009330423 
      9620   705.46667      0.0045560022   0.00092367561
      9640   706.93333      0.0045229764   0.00091310468
      9660   708.4          0.0044902994   0.00090397126
      9680   709.86667      0.0044580418   0.00089358164
      9700   711.33333      0.0044258518   0.0008843805 
      9720   712.8          0.0043933294   0.00087517909
      9740   714.26667      0.0043605401   0.00086597228
      9760   715.73333      0.0043279868   0.00085683691
      9780   717.2          0.0042960278   0.00084656569
      9800   718.66667      0.0042645071   0.00083766313
      9820   720.13333      0.0042330941   0.00082879531
      9840   721.6          0.004201778    0.00081999973
      9860   723.06667      0.0041707824   0.00081020285
      9880   724.53333      0.0041400563   0.00080175012
      9900   726            0.0041092168   0.0007933956 
      9920   727.46667      0.0040780583   0.00078510296
      9940   728.93333      0.0040468424   0.00077693237
      9960   730.4          0.0040159712   0.00076791559
      9980   731.86667      0.0039855189   0.0007601267 
     10000   733.33333      0.0039552676   0.00075240134
     10020   734.8          0.0039250787   0.00074439705
     10040   736.26667      0.0038950096   0.00073598172
     10060   737.73333      0.0038651179   0.00072859326
     10080   739.2          0.0038353705   0.00072124836
     10100   740.66667      0.0038057916   0.00071395196
     10120   742.13333      0.003776564    0.00070665579
     10140   743.6          0.0037478527   0.00069941194
     10160   745.06667      0.0037196202   0.00069231753
     10180   746.53333      0.0036916754   0.00068533245
     10200   748            0.0036638553   0.00067841773
     10220   749.46667      0.0036360987   0.00067156428
     10240   750.93333      0.0036083285   0.00066476311
     10260   752.4          0.0035804225   0.00065799275
     10280   753.86667      0.003552329    0.00065122995
     10300   755.33333      0.0035241488   0.00064445964
     10320   756.8          0.0034961028   0.00063768675
     10340   758.26667      0.0034683664   0.00063093555
     10360   759.73333      0.0034409553   0.00062423501
     10380   761.2          0.0034137834   0.00061760061
     10400   762.66667      0.0033867609   0.00061103194
     10420   764.13333      0.0033598555   0.00060453445
     10440   765.6          0.0033330779   0.0005981197 
     10460   767.06667      0.0033064219   0.00059178795
     10480   768.53333      0.0032798616   0.0005853898 
     10500   770            0.0032533713   0.0005790465 
     10520   771.46667      0.0032269653   0.00057275321
     10540   772.93333      0.003200705    0.00056721597
     10560   774.4          0.0031746835   0.0005610465 
     10580   775.86667      0.0031489402   0.00055497038
     10600   777.33333      0.0031234318   0.00054897376
     10620   778.8          0.0030980985   0.0005430329 
     10640   780.26667      0.0030729302   0.0005371375 
     10660   781.73333      0.0030479613   0.00053191508
     10680   783.2          0.0030231731   0.00052614659
     10700   784.66667      0.0029984871   0.0005204524 
     10720   786.13333      0.0029738449   0.00051481429
     10740   787.6          0.0029492934   0.0005092318 
     10760   789.06667      0.0029249794   0.00050428756
     10780   790.53333      0.0029009981   0.00049880956
     10800   792            0.0028772887   0.00049347325
     10820   793.46667      0.0028537351   0.00048883333
     10840   794.93333      0.0028303507   0.00048376341
     10860   796.4          0.002807306    0.00047885808
     10880   797.86667      0.0027847314   0.0004746344 
     10900   799.33333      0.0027625211   0.00046997518
     10920   800.8          0.002740399    0.0004653405 
     10940   802.26667      0.002718188    0.00046117627
     10960   803.73333      0.0026959759   0.00045651191
     10980   805.2          0.0026740038   0.00045191076
     11000   806.66667      0.0026524301   0.00044787362
     11020   808.13333      0.002631216    0.00044301047
     11040   809.6          0.0026102253   0.00043875576
     11060   811.06667      0.0025893866   0.00043499883
     11080   812.53333      0.0025687502   0.00043078487
     11100   814            0.0025483957   0.00042704909
     11120   815.46667      0.0025283095   0.00042290288
     11140   816.93333      0.0025084165   0.00041922516
     11160   818.4          0.0024886901   0.00041515736
     11180   819.86667      0.0024692131   0.00041156669
     11200   821.33333      0.0024501203   0.00040765025
     11220   822.8          0.0024314406   0.00040421914
     11240   824.26667      0.0024130249   0.00040044878
     11260   825.73333      0.0023946685   0.00039706117
     11280   827.2          0.0023762961   0.00039322318
     11300   828.66667      0.002358017    0.00038977472
     11320   830.13333      0.0023400337   0.00038598246
     11340   831.6          0.0023224859   0.00038264152
     11360   833.06667      0.0023053742   0.00037900772
     11380   834.53333      0.0022886236   0.00037578713
     11400   836            0.0022721705   0.0003726085 
     11420   837.46667      0.002255993    0.0003691377 
     11440   838.93333      0.0022400917   0.00036606108
     11460   840.4          0.0022244456   0.00036272628
     11480   841.86667      0.0022090127   0.00035976392
     11500   843.33333      0.0021937659   0.00035653812
     11520   844.8          0.0021787041   0.00035365262
     11540   846.26667      0.0021638343   0.00035079492
     11560   847.73333      0.002149152    0.00034768573
     11580   849.2          0.0021346452   0.0003448979 
     11600   850.66667      0.0021203191   0.00034188362
     11620   852.13333      0.0021062038   0.00033919402
     11640   853.6          0.0020923314   0.00033630741
     11660   855.06667      0.00207872     0.00033373548
     11680   856.53333      0.0020653789   0.0003312163 
     11700   858            0.002052335    0.00032851846
     11720   859.46667      0.002039637    0.00032613684
     11740   860.93333      0.0020273129   0.00032362387
     11760   862.4          0.0020153185   0.00032143396
     11780   863.86667      0.0020035501   0.00031932196
     11800   865.33333      0.0019919146   0.00031702499
     11820   866.8          0.0019804009   0.00031498727
     11840   868.26667      0.0019690965   0.00031298264
     11860   869.73333      0.0019581094   0.00031081574
     11880   871.2          0.0019474625   0.0003089059 
     11900   872.66667      0.0019370673   0.00030703244
     11920   874.13333      0.0019267999   0.00030499092
     11940   875.6          0.0019166073   0.00030316172
     11960   877.06667      0.001906565    0.00030137685
     11980   878.53333      0.0018968167   0.00029949108
     12000   880            0.0018874439   0.00029786566
     12020   881.46667      0.0018783976   0.00029544418
     12040   882.93333      0.0018695504   0.00029381714
     12060   884.4          0.0018607985   0.00029235949
     12080   885.86667      0.0018521397   0.00029090413
     12100   887.33333      0.0018436728   0.00028932164
     12120   888.8          0.0018355123   0.00028792212
     12140   890.26667      0.0018276968   0.00028657231
     12160   891.73333      0.0018201562   0.00028513405
     12180   893.2          0.0018127632   0.00028384936
     12200   894.66667      0.0018054297   0.00028257133
     12220   896.13333      0.0017981865   0.00028119672
     12240   897.6          0.0017911697   0.00027999402
     12260   899.06667      0.0017845294   0.0002788717 
     12280   900.53333      0.0017783358   0.00027773239
     12300   902            0.0017725493   0.00027677049
     12320   903.46667      0.0017670531   0.00027584355
     12340   904.93333      0.0017617224   0.00027483142
     12360   906.4          0.0017564866   0.00027391117
     12380   907.86667      0.001751348    0.00027299036
     12400   909.33333      0.0017463548   0.00027200372
     12420   910.8          0.0017415661   0.00027113096
     12440   912.26667      0.0017370059   0.00027029708
     12460   913.73333      0.0017326387   0.00026941536
     12480   915.2          0.001728402    0.00026862084
     12500   916.66667      0.0017242581   0.0002678264 
     12520   918.13333      0.001720233    0.00026704482
     12540   919.6          0.0017164157   0.00026624254
     12560   921.06667      0.0017129107   0.00026556377
     12580   922.53333      0.0017097824   0.00026496051
     12600   924            0.0017070325   0.00026443496
     12620   925.46667      0.0017046203   0.00026393152
     12640   926.93333      0.0017024907   0.00026352748
     12660   928.4          0.0017005902   0.00026316726
     12680   929.86667      0.0016988846   0.00026284765
     12700   931.33333      0.0016973693   0.00026253978
     12720   932.8          0.0016960631   0.00026231052
     12740   934.26667      0.0016949983   0.0002621318 
     12760   935.73333      0.0016942018   0.00026199929
     12780   937.2          0.0016936714   0.00026190144
     12800   938.66667      0.0016933734   0.00026181417
     12820   940.13333      0.0016932753   0.00026175831
     12840   941.6          0.001693393    0.00026172263
     12860   943.06667      0.0016938052   0.00026172891
     12880   944.53333      0.0016946177   0.00026180563
     12900   946            0.0016958982   0.00026197428
     12920   947.46667      0.0016976216   0.00026224201
     12940   948.93333      0.0016996653   0.0002625675 
     12960   950.4          0.0017018697   0.00026292372
     12980   951.86667      0.0017041159   0.00026328483
     13000   953.33333      0.0017063712   0.00026364158
     13020   954.8          0.0017086772   0.00026411362
     13040   956.26667      0.0017110945   0.00026450279
     13060   957.73333      0.0017136449   0.00026492876
     13080   959.2          0.0017162897   0.00026537614
     13100   960.66667      0.0017189419   0.0002658233 
     13120   962.13333      0.0017214705   0.00026628604
     13140   963.6          0.0017237314   0.00026664443
     13160   965.06667      0.0017258184   0.00026696266
     13180   966.53333      0.0017281138   0.00026732724
     13200   968            0.001730705    0.00026780593
     13220   969.46667      0.0017334504   0.00026823735
     13240   970.93333      0.0017362107   0.00026865119
     13260   972.4          0.0017389807   0.00026912562
     13280   973.86667      0.0017418624   0.00026954816
     13300   975.33333      0.001744941    0.00026999548
     13320   976.8          0.0017482751   0.00027056019
     13340   978.26667      0.0017519377   0.00027109699
     13360   979.73333      0.0017559716   0.00027177191
     13380   981.2          0.0017603581   0.00027242323
     13400   982.66667      0.0017650232   0.00027311647
     13420   984.13333      0.001769881    0.00027393005
     13440   985.6          0.0017748718   0.00027468122
     13460   987.06667      0.0017799812   0.00027556335
     13480   988.53333      0.0017852307   0.00027639892
     13500   990            0.001790646    0.00027738557
     13520   991.46667      0.0017962334   0.00027831895
     13540   992.93333      0.0018019841   0.00027940192
     13560   994.4          0.0018079012   0.00028042255
     13580   995.86667      0.0018139975   0.00028159172
     13600   997.33333      0.0018202656   0.00028268514
     13620   998.8          0.0018266744   0.00028392739
     13640   1000.2667      0.0018331873   0.0002850761 
     13660   1001.7333      0.0018397791   0.00028636615
     13680   1003.2         0.0018464427   0.00028767123
     13700   1004.6667      0.0018531932   0.00028885241
     13720   1006.1333      0.0018600591   0.0002901782 
     13740   1007.6         0.001867057    0.00029136873
     13760   1009.0667      0.001874181    0.00029271646
     13780   1010.5333      0.0018813979   0.00029409573
     13800   1012           0.0018886518   0.00029535431
     13820   1013.4667      0.0018958868   0.00029676334
     13840   1014.9333      0.0019030722   0.00029816911
     13860   1016.4         0.0019101988   0.00029940373
     13880   1017.8667      0.0019172565   0.0003007685 
     13900   1019.3333      0.0019242526   0.00030211807
     13920   1020.8         0.0019312379   0.00030330029
     13940   1022.2667      0.0019382424   0.00030465615
     13960   1023.7333      0.0019452102   0.00030598573
     13980   1025.2         0.0019520431   0.00030730321
     14000   1026.6667      0.0019586712   0.0003084313 
     14020   1028.1333      0.0019651359   0.00031293463
     14040   1029.6         0.0019715681   0.0003140475 
     14060   1031.0667      0.0019780554   0.00031520236
     14080   1032.5333      0.0019846185   0.00031641258
     14100   1034           0.0019912645   0.00031767661
     14120   1035.4667      0.0019979808   0.00031878896
     14140   1036.9333      0.0020047812   0.00032013033
     14160   1038.4         0.0020117119   0.00032151436
     14180   1039.8667      0.002018799    0.00032294561
     14200   1041.3333      0.0020260401   0.00032440916
     14220   1042.8         0.0020334498   0.00032590664
     14240   1044.2667      0.0020410791   0.00032745665
     14260   1045.7333      0.0020489202   0.00032904613
     14280   1047.2         0.0020568106   0.00033064802
     14300   1048.6667      0.0020644979   0.00033222594
     14320   1050.1333      0.0020717651   0.00033374874
     14340   1051.6         0.0020785145   0.00033520187
     14360   1053.0667      0.0020849304   0.000336594  
     14380   1054.5333      0.0020911477   0.00033792922
     14400   1056           0.0020970095   0.0003392083 
     14420   1057.4667      0.002102441    0.00034043712
     14440   1058.9333      0.0021078959   0.00034166555
     14460   1060.4         0.0021136284   0.0003429398 
     14480   1061.8667      0.002119674    0.00034430308
     14500   1063.3333      0.0021259778   0.00034574798
     14520   1064.8         0.0021322535   0.00034720749
     14540   1066.2667      0.0021385328   0.00034868818
     14560   1067.7333      0.0021450123   0.00035017368
     14580   1069.2         0.0021516029   0.00035170328
     14600   1070.6667      0.0021581594   0.00035326006
     14620   1072.1333      0.0021645903   0.00035508736
     14640   1073.6         0.0021708623   0.00035666831
     14660   1075.0667      0.0021770703   0.00035826813
     14680   1076.5333      0.0021833843   0.00035991856
     14700   1078           0.0021898379   0.00036189483
     14720   1079.4667      0.0021963215   0.00036361874
     14740   1080.9333      0.0022027806   0.00036533875
     14760   1082.4         0.0022092707   0.00036705022
     14780   1083.8667      0.0022158977   0.00036875581
     14800   1085.3333      0.0022227013   0.00037075877
     14820   1086.8         0.0022296352   0.00037247143
     14840   1088.2667      0.0022366286   0.00037419934
     14860   1089.7333      0.0022436077   0.00037595182
     14880   1091.2         0.0022504926   0.00037804828
     14900   1092.6667      0.0022572226   0.00037985073
     14920   1094.1333      0.0022637853   0.00038167106
     14940   1095.6         0.0022702139   0.0003835075 
     14960   1097.0667      0.0022766003   0.00038537085
     14980   1098.5333      0.0022830514   0.00038762342
     15000   1100           0.0022895671   0.00038953014
     15020   1101.4667      0.0022960619   0.00039470781
     15040   1102.9333      0.0023024724   0.00039647685
     15060   1104.4         0.0023087681   0.00039853618
     15080   1105.8667      0.0023148856   0.00040020165
     15100   1107.3333      0.0023205639   0.00040209083
     15120   1108.8         0.0023250316   0.00040339173
     15140   1110.2667      0.0023274221   0.00040467617
     15160   1111.7333      0.0023284226   0.00040542373
     15180   1113.2         0.0023287579   0.00040643935
     15200   1114.6667      0.0023289086   0.00040705089
     15220   1116.1333      0.0023295413   0.00040814074
     15240   1117.6         0.0023309801   0.0004090141 
     15260   1119.0667      0.0023326711   0.00041031245
     15280   1120.5333      0.0023334599   0.00041110204
     15300   1122           0.0023339222   0.00041221374
     15320   1123.4667      0.0023354229   0.00041305749
     15340   1124.9333      0.002336594    0.00041436147
     15360   1126.4         0.0023375987   0.00041525904
     15380   1127.8667      0.0023387783   0.00041665351
     15400   1129.3333      0.0023400196   0.00041768561
     15420   1130.8         0.0023411817   0.00041911632
     15440   1132.2667      0.002342608    0.00042015428
     15460   1133.7333      0.002344035    0.00042161825
     15480   1135.2         0.0023445971   0.00042250826
     15500   1136.6667      0.0023447359   0.00042375194
     15520   1138.1333      0.002345415    0.00042459048
     15540   1139.6         0.0023463379   0.00042600222
     15560   1141.0667      0.0023473535   0.00042699706
     15580   1142.5333      0.0023482668   0.0004284273 
     15600   1144           0.0023489066   0.00042935813
     15620   1145.4667      0.0023493031   0.00043076121
     15640   1146.9333      0.0023487403   0.00043152592
     15660   1148.4         0.0023459954   0.00043238349
     15680   1149.8667      0.0023443039   0.00043297806
     15700   1151.3333      0.0023436885   0.00043425103
     15720   1152.8         0.0023433291   0.00043563314
     15740   1154.2667      0.0023433183   0.00043704889
     15760   1155.7333      0.0023434186   0.00043841941
     15780   1157.2         0.0023438782   0.00043989552
     15800   1158.6667      0.002344566    0.00044097188
     15820   1160.1333      0.0023452837   0.0004425288 
     15840   1161.6         0.0023456668   0.00044406142
     15860   1163.0667      0.0023461109   0.00044564099
     15880   1164.5333      0.0023470022   0.00044727704
     15900   1166           0.0023476915   0.00044885706
     15920   1167.4667      0.0023480815   0.00045040615
     15940   1168.9333      0.0023484922   0.00045148561
     15960   1170.4         0.0023490561   0.00045315684
     15980   1171.8667      0.0023497486   0.00045488999
     16000   1173.3333      0.0023504277   0.00045664145
     16020   1174.8         0.0023507478   0.00045966619
     16040   1176.2667      0.0023500216   0.00046106423
     16060   1177.7333      0.0023435739   0.00046128613
     16080   1179.2         0.002331091    0.00046017822
     16100   1180.6667      0.0023195289   0.00045976001
     16120   1182.1333      0.0023128859   0.00045957785
     16140   1183.6         0.0023036003   0.00045916915
     16160   1185.0667      0.0022931673   0.00045848454
     16180   1186.5333      0.0022821913   0.00045789788
     16200   1188           0.002272654    0.00045771169
     16220   1189.4667      0.0022640344   0.00045727886
     16240   1190.9333      0.0022567322   0.00045762493
     16260   1192.4         0.0022503819   0.00045819809
     16280   1193.8667      0.0022445253   0.00045889671
     16300   1195.3333      0.0022393041   0.00045972391
     16320   1196.8         0.0022346828   0.00046065201
     16340   1198.2667      0.0022304851   0.00046166028
     16360   1199.7333      0.002226472    0.00046205225
     16380   1201.2         0.002222555    0.00046303266
     16400   1202.6667      0.0022191956   0.00046397462
     16420   1204.1333      0.0022162363   0.00046483201
     16440   1205.6         0.0022132216   0.00046559206
     16460   1207.0667      0.0022104074   0.00046648769
     16480   1208.5333      0.0022080007   0.00046771201
     16500   1210           0.0022059813   0.00046854611
     16520   1211.4667      0.0022045001   0.00047031007
     16540   1212.9333      0.0022035069   0.00047220713
     16560   1214.4         0.0022027865   0.0004742048 
     16580   1215.8667      0.0022023299   0.00047636882
     16600   1217.3333      0.0022021001   0.0004787252 
     16620   1218.8         0.0022019508   0.00048121202
     16640   1220.2667      0.0022017875   0.00048297482
     16660   1221.7333      0.0022014939   0.00048550506
     16680   1223.2         0.0022009778   0.00048800354
     16700   1224.6667      0.0022003147   0.00049049779
     16720   1226.1333      0.0021997169   0.00049305349
     16740   1227.6         0.0021993543   0.00049571784
     16760   1229.0667      0.0021992434   0.00049811841
     16780   1230.5333      0.0021992583   0.00050056549
     16800   1232           0.0021992313   0.00050376481
     16820   1233.4667      0.0021990883   0.00050619064
     16840   1234.9333      0.0021987075   0.00050855983
     16860   1236.4         0.0021979446   0.00051164406
     16880   1237.8667      0.002196815    0.00051389452
     16900   1239.3333      0.0021957726   0.00051620512
     16920   1240.8         0.0021950939   0.00051947303
     16940   1242.2667      0.0021946457   0.00052201896
     16960   1243.7333      0.0021943562   0.00052461518
     16980   1245.2         0.0021936235   0.00052796097
     17000   1246.6667      0.0021918577   0.00053018035
     17020   1248.1333      0.0021897889   0.00053352579
     17040   1249.6         0.0021881538   0.00053671438
     17060   1251.0667      0.0021868127   0.00053918625
     17080   1252.5333      0.0021855372   0.00054178507
     17100   1254           0.0021842407   0.00054537454
     17120   1255.4667      0.00218252     0.00054790946
     17140   1256.9333      0.0021801207   0.00054945535
     17160   1258.4         0.0021778309   0.00054884454
     17180   1259.8667      0.0021758799   0.00054835327
     17200   1261.3333      0.0021742175   0.00054794848
     17220   1262.8         0.0021727319   0.0005476462 
     17240   1264.2667      0.0021712556   0.0005473839 
     17260   1265.7333      0.0021697652   0.00054708116
     17280   1267.2         0.0021686668   0.00054678801
     17300   1268.6667      0.0021679856   0.0005465362 
     17320   1270.1333      0.0021677026   0.00054636545
     17340   1271.6         0.0021675461   0.00054624076
     17360   1273.0667      0.0021595253   0.00054398384
     17380   1274.5333      0.0021331911   0.00053637558
     17400   1276           0.0021136048   0.00053133226
     17420   1277.4667      0.0020856244   0.00052431767
     17440   1278.9333      0.0020587982   0.00051723202
     17460   1280.4         0.0020234864   0.00050722885
     17480   1281.8667      0.0020034274   0.00050244592
     17500   1283.3333      0.0019890242   0.00049882362
     17520   1284.8         0.0019790051   0.00049619336
     17540   1286.2667      0.0019711431   0.0004939519 
     17560   1287.7333      0.0019652871   0.00049212585
     17580   1289.2         0.0019604213   0.00049054869
     17600   1290.6667      0.0019562975   0.00048894052
     17620   1292.1333      0.0019525457   0.00048692562
     17640   1293.6         0.0019482005   0.00048416292
     17660   1295.0667      0.0019426562   0.00048079318
     17680   1296.5333      0.0019361616   0.00047734854
     17700   1298           0.0019297247   0.00047446894
     17720   1299.4667      0.001925219    0.00047280297
     17740   1300.9333      0.0019232568   0.00047246934
     17760   1302.4         0.0019218501   0.00047279186
     17780   1303.8667      0.0019196979   0.00047320184
     17800   1305.3333      0.0019167743   0.00047343185
     17820   1306.8         0.0019136409   0.00047339399
     17840   1308.2667      0.0019106634   0.00047308006
     17860   1309.7333      0.0019074649   0.0004724548 
     17880   1311.2         0.0019041604   0.00047167465
     17900   1312.6667      0.0018997532   0.00047057964
     17920   1314.1333      0.0018813571   0.00046558467
     17940   1315.6         0.0018700621   0.00046310757
     17960   1317.0667      0.0018615246   0.00046040332
     17980   1318.5333      0.0018562458   0.00045954789
     18000   1320           0.0018521192   0.00045838567
     18020   1321.4667      0.0018489424   0.00045973831
     18040   1322.9333      0.0018466408   0.00045921101
     18060   1324.4         0.0018443343   0.00045847086
     18080   1325.8667      0.0018422574   0.00045796301
     18100   1327.3333      0.001840497    0.00045757044
     18120   1328.8         0.001838999    0.00045721388
     18140   1330.2667      0.0018377257   0.00045693634
     18160   1331.7333      0.0018365621   0.00045669831
     18180   1333.2         0.0018353817   0.00045644576
     18200   1334.6667      0.0018341284   0.00045615273
     18220   1336.1333      0.0018328339   0.00045584435
     18240   1337.6         0.0018315194   0.00045556775
     18260   1339.0667      0.0018301959   0.00045535632
     18280   1340.5333      0.0018288473   0.00045519892
     18300   1342           0.0018274386   0.00045503498
     18320   1343.4667      0.0018260054   0.00045481128
     18340   1344.9333      0.0018245852   0.00045450004
     18360   1346.4         0.0018231019   0.0004540835 
     18380   1347.8667      0.001821469    0.00045358105
     18400   1349.3333      0.0018197376   0.00045306611
     18420   1350.8         0.0018180002   0.00045260373
     18440   1352.2667      0.0018163082   0.00045221602
     18460   1353.7333      0.0018147069   0.00045190208
     18480   1355.2         0.0018132417   0.00045165411
     18500   1356.6667      0.0018119107   0.00045145551
     18520   1358.1333      0.001810669    0.00045128547
     18540   1359.6         0.0018094613   0.00045112393
     18560   1361.0667      0.0018082232   0.00045095212
     18580   1362.5333      0.0018068697   0.00045074731
     18600   1364           0.0018053598   0.00045049468
     18620   1365.4667      0.001803821    0.00045022246
     18640   1366.9333      0.0018024186   0.00044997666
     18660   1368.4         0.0018012184   0.00044977422
     18680   1369.8667      0.001800253    0.00044960793
     18700   1371.3333      0.0017995263   0.00044946434
     18720   1372.8         0.0017990146   0.00044933125
     18740   1374.2667      0.0017986547   0.00044919503
     18760   1375.7333      0.0017983907   0.00044904702
     18780   1377.2         0.0017982189   0.00044889373
     18800   1378.6667      0.0017981447   0.00044875017
     18820   1380.1333      0.0017981515   0.0004486251 
     18840   1381.6         0.0017982103   0.00044852015
     18860   1383.0667      0.0017982881   0.00044843325
     18880   1384.5333      0.0017983653   0.000448365  
     18900   1386           0.001798447    0.00044832045
     18920   1387.4667      0.0017985529   0.00044830275
     18940   1388.9333      0.0017986938   0.00044830631
     18960   1390.4         0.0017988526   0.00044831443
     18980   1391.8667      0.0017989994   0.00044830626
     19000   1393.3333      0.0017991153   0.00044826516
     19020   1394.8         0.0017991988   0.00044915071
     19040   1396.2667      0.001799254    0.00044906242
     19060   1397.7333      0.0017992689   0.00044891447
     19080   1399.2         0.0017992242   0.00044870041
     19100   1400.6667      0.0017991215   0.00044842078
     19120   1402.1333      0.0017989755   0.00044808289
     19140   1403.6         0.0017964865   0.00044708588
     19160   1405.0667      0.0017671474   0.00043842681
     19180   1406.5333      0.001759866    0.00043647885
     19200   1408           0.0017507265   0.00043367898
     19220   1409.4667      0.0017444204   0.0004318007 
     19240   1410.9333      0.0017414301   0.00043081656
     19260   1412.4         0.0017387199   0.00043011065
     19280   1413.8667      0.0017366581   0.00042937639
     19300   1415.3333      0.0017346579   0.00042867671
     19320   1416.8         0.0017329785   0.00042813501
     19340   1418.2667      0.0017314174   0.00042765872
     19360   1419.7333      0.0017298461   0.00042726007
     19380   1421.2         0.0017282265   0.00042685827
     19400   1422.6667      0.0017266222   0.00042643936
     19420   1424.1333      0.0017250805   0.00042602401
     19440   1425.6         0.0017236842   0.00042563335
     19460   1427.0667      0.0017224791   0.0004252838 
     19480   1428.5333      0.0017214484   0.0004249783 
     19500   1430           0.0017205719   0.00042471145
     19520   1431.4667      0.0017198239   0.00042448139
     19540   1432.9333      0.0017191823   0.00042429792
     19560   1434.4         0.0017186309   0.00042417311
     19580   1435.8667      0.0017181514   0.00042410674
     19600   1437.3333      0.0017177313   0.00042408766
     19620   1438.8         0.0017173707   0.00042410601
     19640   1440.2667      0.0017170804   0.00042415896
     19660   1441.7333      0.001716866    0.00042424809
     19680   1443.2         0.0017167145   0.00042437253
     19700   1444.6667      0.0017165944   0.00042452905
     19720   1446.1333      0.0017164658   0.00042471078
     19740   1447.6         0.0017163047   0.00042491187
     19760   1449.0667      0.0017161141   0.00042512881
     19780   1450.5333      0.0017159151   0.0004253623 
     19800   1452           0.0017157289   0.00042561   
     19820   1453.4667      0.0017155667   0.00042586377
     19840   1454.9333      0.0017154331   0.00042611172
     19860   1456.4         0.0017153318   0.00042634204
     19880   1457.8667      0.0017152686   0.00042654556
     19900   1459.3333      0.001715248    0.0004267162 
     19920   1460.8         0.0017152707   0.00042685243
     19940   1462.2667      0.0017153307   0.00042695688
     19960   1463.7333      0.0017154118   0.00042703322
     19980   1465.2         0.0017154856   0.00042708423
     20000   1466.6667      0.0017155206   0.00042711202
     20020   1468.1333      0.0017155047   0.00042724014
     20040   1469.6         0.0017154544   0.00042722098
     20060   1471.0667      0.001715392    0.00042719787
     20080   1472.5333      0.0017153329   0.00042717336
     20100   1474           0.0017152878   0.00042714979
     20120   1475.4667      0.001715271    0.00042712929
     20140   1476.9333      0.0017152994   0.00042711227
     20160   1478.4         0.0017153805   0.00042709564
     20180   1479.8667      0.0017155005   0.00042707133
     20200   1481.3333      0.0017156245   0.00042702768
     20220   1482.8         0.0017157172   0.00042695548
     20240   1484.2667      0.0017157686   0.00042685461
     20260   1485.7333      0.0017158008   0.00042673439
     20280   1487.2         0.0017158364   0.00042660207
     20300   1488.6667      0.0017158773   0.00042645791
     20320   1490.1333      0.0017159159   0.00042629995
     20340   1491.6         0.0017159542   0.00042613037
     20360   1493.0667      0.0017160011   0.00042595289
     20380   1494.5333      0.001716058    0.0004257695 
     20400   1496           0.0017161178   0.00042558013
     20420   1497.4667      0.0017161642   0.00042538417
     20440   1498.9333      0.0017161779   0.00042518248
     20460   1500.4         0.0017161465   0.00042497874
     20480   1501.8667      0.0017160715   0.00042477788
     20500   1503.3333      0.0017159623   0.00042458198
     20520   1504.8         0.001715827    0.0004243895 
     20540   1506.2667      0.0017156719   0.00042419662
     20560   1507.7333      0.0017155025   0.0004240019 
     20580   1509.2         0.0017153234   0.00042380726
     20600   1510.6667      0.0017151385   0.00042361754
     20620   1512.1333      0.0017149516   0.00042343856
     20640   1513.6         0.0017147648   0.00042327378
     20660   1515.0667      0.00171458     0.00042312472
     20680   1516.5333      0.0017144031   0.00042299294
     20700   1518           0.0017142442   0.00042288212
     20720   1519.4667      0.0017141144   0.00042279524
     20740   1520.9333      0.0017140207   0.00042273428
     20760   1522.4         0.0017139635   0.00042269997
     20780   1523.8667      0.00171394     0.00042269183
     20800   1525.3333      0.0017139466   0.00042270935
     20820   1526.8         0.0017139796   0.00042275258
     20840   1528.2667      0.0017140344   0.00042282041
     20860   1529.7333      0.0017141036   0.00042290945
     20880   1531.2         0.0017141758   0.00042301563
     20900   1532.6667      0.0017142398   0.00042313592
     20920   1534.1333      0.0017142881   0.00042326791
     20940   1535.6         0.0017143162   0.00042340992
     20960   1537.0667      0.0017143232   0.00042355888
     20980   1538.5333      0.0017143147   0.00042371323
     21000   1540           0.0017143083   0.0004241682 
     21020   1541.4667      0.0017143289   0.00042432236
     21040   1542.9333      0.0017143897   0.00042449121
     21060   1544.4         0.001714477    0.00042467004
     21080   1545.8667      0.001714559    0.00042484887
     21100   1547.3333      0.0017146076   0.00042501839
     21120   1548.8         0.0017146178   0.00042517402
     21140   1550.2667      0.0017146136   0.00042532103
     21160   1551.7333      0.00171463     0.00042547119
     21180   1553.2         0.0017146849   0.0004256315 
     21200   1554.6667      0.0017147736   0.00042580142
     21220   1556.1333      0.0017148829   0.00042597269
     21240   1557.6         0.001714991    0.00042613541
     21260   1559.0667      0.0017150579   0.00042627662
     21280   1560.5333      0.0017150173   0.00042637911
     21300   1562           0.0017148069   0.00042642479
     21320   1563.4667      0.0017144676   0.00042641592
     21340   1564.9333      0.0017141545   0.00042637843
     21360   1566.4         0.0017139255   0.00042632554
     21380   1567.8667      0.0017137305   0.00042625856
     21400   1569.3333      0.0017135534   0.0004261819 
     21420   1570.8         0.0017134039   0.00042609181
     21440   1572.2667      0.0017132945   0.00042598017
     21460   1573.7333      0.0017132323   0.0004258487 
     21480   1575.2         0.0017132085   0.00042570342
     21500   1576.6667      0.0017132064   0.000425557  
     21520   1578.1333      0.0017132134   0.00042542565
     21540   1579.6         0.0017132176   0.00042531727
     21560   1581.0667      0.0017132062   0.0004252287 
     21580   1582.5333      0.0017131732   0.0004251468 
     21600   1584           0.0017131215   0.0004250569 
     21620   1585.4667      0.0017130537   0.0004249489 
     21640   1586.9333      0.0017129661   0.00042481703
     21660   1588.4         0.0017128508   0.00042466324
     21680   1589.8667      0.0017126995   0.00042449273
     21700   1591.3333      0.0017125071   0.0004243128 
     21720   1592.8         0.0017122734   0.00042413015
     21740   1594.2667      0.0017120037   0.0004239498 
     21760   1595.7333      0.0017117057   0.0004237762 
     21780   1597.2         0.0017113871   0.00042360939
     21800   1598.6667      0.0017110523   0.0004234474 
     21820   1600.1333      0.0017106971   0.00042328399
     21840   1601.6         0.0017103076   0.0004231134 
     21860   1603.0667      0.0017098606   0.00042293024
     21880   1604.5333      0.0017093303   0.0004227328 
     21900   1606           0.0017086943   0.0004225205 
     21920   1607.4667      0.0017079346   0.00042229292
     21940   1608.9333      0.001707034    0.00042204708
     21960   1610.4         0.0017059793   0.00042177682
     21980   1611.8667      0.0017047694   0.00042147637
     22000   1613.3333      0.0017034174   0.00042113981
     22020   1614.8         0.001701934    0.00041920906
     22040   1616.2667      0.0017003064   0.0004188158 
     22060   1617.7333      0.0016985006   0.00041837052
     22080   1619.2         0.0016965021   0.0004178637 
     22100   1620.6667      0.0016943333   0.000417303  
     22120   1622.1333      0.001691997    0.00041669528
     22140   1623.6         0.0016894453   0.00041603517
     22160   1625.0667      0.0016866312   0.00041531773
     22180   1626.5333      0.0016835276   0.00041453967
     22200   1628           0.0016801232   0.00041369897
     22220   1629.4667      0.0016764257   0.00041279543
     22240   1630.9333      0.0016724575   0.00041183694
     22260   1632.4         0.001668237    0.00041082623
     22280   1633.8667      0.0016637637   0.00040976475
     22300   1635.3333      0.0016590146   0.00040866388
     22320   1636.8         0.0016539175   0.00040753535
     22340   1638.2667      0.0016483127   0.00040637717
     22360   1639.7333      0.0016420665   0.0004051861 
     22380   1641.2         0.0016353641   0.00040396562
     22400   1642.6667      0.0016285255   0.00040265926
     22420   1644.1333      0.0016214611   0.00040116125
     22440   1645.6         0.0016135534   0.00039950817
     22460   1647.0667      0.0016031458   0.00039766179
     22480   1648.5333      0.0015894385   0.00039530155
     22500   1650           0.0015771516   0.00039264817
     22520   1651.4667      0.0015675396   0.00039007613
     22540   1652.9333      0.00155684     0.00038688004
     22560   1654.4         0.0015465918   0.000383736  
     22580   1655.8667      0.0015360173   0.00038070207
     22600   1657.3333      0.001523487    0.00037761448
     22620   1658.8         0.0015082638   0.00037430958
     22640   1660.2667      0.0014929623   0.00037069987
     22660   1661.7333      0.0014807688   0.00036705661
     22680   1663.2         0.0014706185   0.00036380527
     22700   1664.6667      0.0014593297   0.00036041008
     22720   1666.1333      0.0014481297   0.00035711553
     22740   1667.6         0.0014382024   0.00035448107
     22760   1669.0667      0.001427956    0.00035217725
     22780   1670.5333      0.0014172513   0.00034980983
     22800   1672           0.0014078519   0.00034741309
     22820   1673.4667      0.0013995836   0.00034501448
     22840   1674.9333      0.0013912534   0.00034276761
     22860   1676.4         0.001381745    0.00034062232
     22880   1677.8667      0.0013719741   0.00033845136
     22900   1679.3333      0.001363105    0.00033618039
     22920   1680.8         0.0013550851   0.00033383441
     22940   1682.2667      0.0013470633   0.00033145556
     22960   1683.7333      0.0013387216   0.00032913265
     22980   1685.2         0.0013302335   0.00032685753
     23000   1686.6667      0.0013217701   0.00032459532
     23020   1688.1333      0.0013134771   0.00031317754
     23040   1689.6         0.0013055703   0.00031160175
     23060   1691.0667      0.0012980949   0.00031009594
     23080   1692.5333      0.001290821    0.00030864823
     23100   1694           0.0012834853   0.00030723997
     23120   1695.4667      0.001275978    0.0003058398 
     23140   1696.9333      0.0012683093   0.0003044197 
     23160   1698.4         0.0012604795   0.00030293769
     23180   1699.8667      0.001252445    0.00030135858
     23200   1701.3333      0.0012441677   0.00029968087
     23220   1702.8         0.0012356823   0.00029792667
     23240   1704.2667      0.0012270692   0.00029612358
     23260   1705.7333      0.001218373    0.00029428657
     23280   1707.2         0.0012096103   0.00029241898
     23300   1708.6667      0.0012007989   0.00029052333
     23320   1710.1333      0.0011919726   0.00028861014
     23340   1711.6         0.0011831507   0.00028670235
     23360   1713.0667      0.0011743064   0.00028481566
     23380   1714.5333      0.0011653864   0.00028294219
     23400   1716           0.0011563582   0.00028106013
     23420   1717.4667      0.0011472508   0.00027914824
     23440   1718.9333      0.0011381311   0.00027718578
     23460   1720.4         0.0011290365   0.00027515645
     23480   1721.8667      0.0011199579   0.00027305732
     23500   1723.3333      0.001110864    0.00027090222
     23520   1724.8         0.0011017295   0.00026871191
     23540   1726.2667      0.0010925414   0.00026649771
     23560   1727.7333      0.0010833036   0.00026426617
     23580   1729.2         0.0010740277   0.00026201784
     23600   1730.6667      0.0010647352   0.00025975291
     23620   1732.1333      0.00105545     0.00025747901
     23640   1733.6         0.0010461831   0.00025520281
     23660   1735.0667      0.0010369296   0.00025291811
     23680   1736.5333      0.0010276848   0.00025060986
     23700   1738           0.0010184676   0.00024826916
     23720   1739.4667      0.0010093138   0.00024589544
     23740   1740.9333      0.0010002491   0.00024348959
     23760   1742.4         0.00099127282  0.0002410582 
     23780   1743.8667      0.00098236741  0.0002386092 
     23800   1745.3333      0.00097351248  0.00023614744
     23820   1746.8         0.00096468593  0.0002336799 
     23840   1748.2667      0.00095586171  0.00023121119
     23860   1749.7333      0.00094701062  0.00022873831
     23880   1751.2         0.00093811096  0.00022625385
     23900   1752.6667      0.0009291647   0.00022375344
     23920   1754.1333      0.00092019937  0.00022123673
     23940   1755.6         0.00091124925  0.00021870613
     23960   1757.0667      0.00090233818  0.00021616456
     23980   1758.5333      0.00089347124  0.00021361775
     24000   1760           0.00088463765  0.00021107154
     24020   1761.4667      0.0008758251   0.00020274151
     24040   1762.9333      0.00086703208  0.00020030351
     24060   1764.4         0.00085826672  0.00019787477
     24080   1765.8667      0.00084953514  0.00019546521
     24100   1767.3333      0.00084083119  0.00019308212
     24120   1768.8         0.00083213626  0.00019073088
     24140   1770.2667      0.00082342658  0.00018841395
     24160   1771.7333      0.00081468434  0.00018613088
     24180   1773.2         0.00080590443  0.00018387869
     24200   1774.6667      0.00079709597  0.0001816528 
     24220   1776.1333      0.00078827788  0.00017944666
     24240   1777.6         0.00077947303  0.00017725482
     24260   1779.0667      0.00077070132  0.00017507393
     24280   1780.5333      0.00076197697  0.00017290569
     24300   1782           0.00075330984  0.0001707573 
     24320   1783.4667      0.00074470771  0.00016863878
     24340   1784.9333      0.00073617673  0.00016655876
     24360   1786.4         0.00072772095  0.00016451862
     24380   1787.8667      0.00071934118  0.00016251169
     24400   1789.3333      0.00071103529  0.00016052548
     24420   1790.8         0.00070280021  0.00015854551
     24440   1792.2667      0.00069463659  0.00015656194
     24460   1793.7333      0.0006865537   0.00015457131
     24480   1795.2         0.00067856786  0.00015257654
     24500   1796.6667      0.00067069223  0.00015058071
     24520   1798.1333      0.00066292813  0.00014858673
     24540   1799.6         0.00065526553  0.00014659801
     24560   1801.0667      0.00064768903  0.00014462209
     24580   1802.5333      0.0006401858   0.00014266841
     24600   1804           0.00063275041  0.0001407465 
     24620   1805.4667      0.00062538451  0.00013886309
     24640   1806.9333      0.00061809417  0.00013702163
     24660   1808.4         0.00061088502  0.00013522321
     24680   1809.8667      0.00060376026  0.0001334668 
     24700   1811.3333      0.00059672138  0.00013175098
     24720   1812.8         0.0005897695   0.00013007571
     24740   1814.2667      0.00058290659  0.00012844084
     24760   1815.7333      0.00057613452  0.00012684592
     24780   1817.2         0.00056945414  0.00012529004
     24800   1818.6667      0.00056286388  0.00012377068
     24820   1820.1333      0.00055635964  0.00012228378
     24840   1821.6         0.00054993488  0.0001208244 
     24860   1823.0667      0.00054358143  0.0001193874 
     24880   1824.5333      0.00053729046  0.00011796836
     24900   1826           0.00053105286  0.00011656305
     24920   1827.4667      0.00052485961  0.00011516697
     24940   1828.9333      0.0005187023   0.0001137759 
     24960   1830.4         0.00051257392  0.00011238565
     24980   1831.8667      0.00050646976  0.00011099202
     25000   1833.3333      0.00050038796  0.00010959127
     25020   1834.8         0.00049432979  0.00010621949
     25040   1836.2667      0.00048830007  0.00010478574
     25060   1837.7333      0.00048230741  0.00010334553
     25080   1839.2         0.00047636374  0.00010190332
     25100   1840.6667      0.00047048273  0.00010046421
     25120   1842.1333      0.00046467783  9.9033549e-05
     25140   1843.6         0.00045896075  9.7615951e-05
     25160   1845.0667      0.00045334029  9.6214829e-05
     25180   1846.5333      0.0004478223   9.4833462e-05
     25200   1848           0.00044240978  9.3474333e-05
     25220   1849.4667      0.00043710285  9.2138387e-05
     25240   1850.9333      0.000431899    9.0825149e-05
     25260   1852.4         0.00042679377  8.9533214e-05
     25280   1853.8667      0.00042178165  8.8260608e-05
     25300   1855.3333      0.00041685693  8.7005711e-05
     25320   1856.8         0.0004120143   8.5767031e-05
     25340   1858.2667      0.00040724969  8.4543793e-05
     25360   1859.7333      0.00040256131  8.3335718e-05
     25380   1861.2         0.00039794989  8.2143463e-05
     25400   1862.6667      0.00039341802  8.096826e-05 
     25420   1864.1333      0.00038896856  7.9810535e-05
     25440   1865.6         0.00038460298  7.8670027e-05
     25460   1867.0667      0.00038032019  7.7545862e-05
     25480   1868.5333      0.00037611679  7.6436993e-05
     25500   1870           0.00037198791  7.534245e-05 
     25520   1871.4667      0.00036792828  7.4262261e-05
     25540   1872.9333      0.00036393292  7.3197216e-05
     25560   1874.4         0.0003599976   7.2148944e-05
     25580   1875.8667      0.0003561194   7.1119412e-05
     25600   1877.3333      0.0003522973   7.0110458e-05
     25620   1878.8         0.00034853216  6.912369e-05 
     25640   1880.2667      0.00034482598  6.8159691e-05
     25660   1881.7333      0.00034118105  6.7217566e-05
     25680   1883.2         0.00033759928  6.6294985e-05
     25700   1884.6667      0.00033408203  6.538851e-05 
     25720   1886.1333      0.00033063007  6.449456e-05 
     25740   1887.6         0.00032724346  6.361033e-05 
     25760   1889.0667      0.00032392144  6.2733433e-05
     25780   1890.5333      0.00032066233  6.1861604e-05
     25800   1892           0.00031746338  6.099296e-05 
     25820   1893.4667      0.00031432088  6.0125724e-05
     25840   1894.9333      0.00031123053  5.9258414e-05
     25860   1896.4         0.00030818823  5.8390344e-05
     25880   1897.8667      0.00030519073  5.7521957e-05
     25900   1899.3333      0.00030223617  5.665465e-05 
     25920   1900.8         0.00029932409  5.5790402e-05
     25940   1902.2667      0.00029645501  5.4931213e-05
     25960   1903.7333      0.00029362985  5.4079077e-05
     25980   1905.2         0.00029084953  5.323546e-05 
     26000   1906.6667      0.00028811507  5.2401661e-05
     26020   1908.1333      0.00028542771  5.0094512e-05
     26040   1909.6         0.00028278903  4.9247012e-05
     26060   1911.0667      0.00028020093  4.8410727e-05
     26080   1912.5333      0.00027766539  4.7587214e-05
     26100   1914           0.0002751843   4.6778136e-05
     26120   1915.4667      0.00027275938  4.5985384e-05
     26140   1916.9333      0.00027039217  4.5210988e-05
     26160   1918.4         0.00026808393  4.4457378e-05
     26180   1919.8667      0.0002658355   4.3727158e-05
     26200   1921.3333      0.0002636472   4.3022628e-05
     26220   1922.8         0.00026151881  4.2345745e-05
     26240   1924.2667      0.00025944981  4.1698218e-05
     26260   1925.7333      0.00025743965  4.1081611e-05
     26280   1927.2         0.00025548821  4.0497145e-05
     26300   1928.6667      0.00025359587  3.9945542e-05
     26320   1930.1333      0.00025176329  3.9427102e-05
     26340   1931.6         0.00024999117  3.8941918e-05
     26360   1933.0667      0.00024828007  3.8489503e-05
     26380   1934.5333      0.00024663017  3.8068591e-05
     26400   1936           0.00024504105  3.7677705e-05
     26420   1937.4667      0.00024351154  3.7315293e-05
     26440   1938.9333      0.0002420396   3.6979344e-05
     26460   1940.4         0.0002406223   3.6667599e-05
     26480   1941.8667      0.00023925576  3.6377722e-05
     26500   1943.3333      0.00023793517  3.6107615e-05
     26520   1944.8         0.00023665466  3.5855198e-05
     26540   1946.2667      0.0002354078   3.561875e-05 
     26560   1947.7333      0.00023418869  3.5397177e-05
     26580   1949.2         0.00023299283  3.5189676e-05
     26600   1950.6667      0.00023181785  3.4995284e-05
     26620   1952.1333      0.00023066289  3.4812765e-05
     26640   1953.6         0.00022952747  3.4640431e-05
     26660   1955.0667      0.00022841084  3.4476397e-05
     26680   1956.5333      0.00022731186  3.4318637e-05
     26700   1958           0.00022622945  3.4165779e-05
     26720   1959.4667      0.0002251631   3.4016975e-05
     26740   1960.9333      0.00022411291  3.387194e-05 
     26760   1962.4         0.00022307966  3.3730188e-05
     26780   1963.8667      0.00022206496  3.3591356e-05
     26800   1965.3333      0.0002210711   3.3455489e-05
     26820   1966.8         0.00022010105  3.3323002e-05
     26840   1968.2667      0.00021915823  3.3194543e-05
     26860   1969.7333      0.00021824576  3.3070631e-05
     26880   1971.2         0.00021736572  3.2951132e-05
     26900   1972.6667      0.00021651895  3.28355e-05  
     26920   1974.1333      0.00021570497  3.2722371e-05
     26940   1975.6         0.00021492221  3.2609829e-05
     26960   1977.0667      0.00021416851  3.249561e-05 
     26980   1978.5333      0.00021344149  3.237756e-05 
     27000   1980           0.00021273875  3.2253928e-05
     27020   1981.4667      0.00021205792  3.2123061e-05
     27040   1982.9333      0.00021139665  3.0943342e-05
     27060   1984.4         0.00021075267  3.0796126e-05
     27080   1985.8667      0.00021012406  3.0642248e-05
     27100   1987.3333      0.00020950926  3.0481265e-05
     27120   1988.8         0.00020890746  3.0313065e-05
     27140   1990.2667      0.00020831902  3.0138035e-05
     27160   1991.7333      0.00020774535  2.995683e-05 
     27180   1993.2         0.00020718824  2.9770104e-05
     27200   1994.6667      0.00020664914  2.9578402e-05
     27220   1996.1333      0.00020612837  2.9382214e-05
     27240   1997.6         0.00020562492  2.9181927e-05
     27260   1999.0667      0.00020513634  2.8977418e-05
     27280   2000.5333      0.00020465927  2.8768324e-05
     27300   2002           0.00020419017  2.8554043e-05
     27320   2003.4667      0.00020372622  2.8334143e-05
     27340   2004.9333      0.00020326567  2.8108364e-05
     27360   2006.4         0.00020280751  2.7876618e-05
     27380   2007.8667      0.00020235101  2.7639017e-05
     27400   2009.3333      0.00020189538  2.7395806e-05
     27420   2010.8         0.00020143974  2.7147555e-05
     27440   2012.2667      0.0002009833   2.6895104e-05
     27460   2013.7333      0.00020052541  2.6639583e-05
     27480   2015.2         0.00020006549  2.6382381e-05
     27500   2016.6667      0.00019960285  2.6125136e-05
     27520   2018.1333      0.0001991367   2.5869302e-05
     27540   2019.6         0.00019866632  2.5615981e-05
     27560   2021.0667      0.0001981913   2.5365988e-05
     27580   2022.5333      0.00019771056  2.5119744e-05
     27600   2024           0.00019722166  2.4876923e-05
     27620   2025.4667      0.00019672119  2.4636768e-05
     27640   2026.9333      0.00019620569  2.4398715e-05
     27660   2028.4         0.00019567291  2.4163307e-05
     27680   2029.8667      0.00019512334  2.3932022e-05
     27700   2031.3333      0.00019456074  2.370715e-05 
     27720   2032.8         0.00019399147  2.3491395e-05
     27740   2034.2667      0.00019342336  2.32874e-05  
     27760   2035.7333      0.00019286444  2.3097887e-05
     27780   2037.2         0.00019232147  2.2924513e-05
     27800   2038.6667      0.00019179898  2.2768432e-05
     27820   2040.1333      0.00019129912  2.2629823e-05
     27840   2041.6         0.00019082126  2.2507471e-05
     27860   2043.0667      0.00019036218  2.2398567e-05
     27880   2044.5333      0.00018991672  2.2299353e-05
     27900   2046           0.00018947871  2.2205203e-05
     27920   2047.4667      0.00018904136  2.2111272e-05
     27940   2048.9333      0.00018859793  2.2013271e-05
     27960   2050.4         0.00018814313  2.1908428e-05
     27980   2051.8667      0.00018767408  2.1795955e-05
     28000   2053.3333      0.00018719112  2.1676951e-05
     28020   2054.8         0.00018669802  2.1553778e-05
     28040   2056.2667      0.00018620132  2.3120918e-05
     28060   2057.7333      0.00018570887  2.3001867e-05
     28080   2059.2         0.00018522859  2.2885858e-05
     28100   2060.6667      0.00018476712  2.2774596e-05
     28120   2062.1333      0.00018432908  2.2669914e-05
     28140   2063.6         0.00018391668  2.2573386e-05
     28160   2065.0667      0.00018353009  2.2485955e-05
     28180   2066.5333      0.00018316826  2.2407962e-05
     28200   2068           0.00018282945  2.233941e-05 
     28220   2069.4667      0.00018251124  2.2279997e-05
     28240   2070.9333      0.00018221074  2.2229096e-05
     28260   2072.4         0.00018192462  2.2185626e-05
     28280   2073.8667      0.00018164906  2.214816e-05 
     28300   2075.3333      0.00018138012  2.2114839e-05
     28320   2076.8         0.00018111373  2.2083795e-05
     28340   2078.2667      0.00018084619  2.2053416e-05
     28360   2079.7333      0.0001805746   2.2022415e-05
     28380   2081.2         0.00018029709  2.1990066e-05
     28400   2082.6667      0.00018001313  2.1956445e-05
     28420   2084.1333      0.00017972352  2.1922408e-05
     28440   2085.6         0.00017943037  2.188938e-05 
     28460   2087.0667      0.00017913668  2.185906e-05 
     28480   2088.5333      0.0001788458   2.1833e-05   
     28500   2090           0.000178561    2.1812419e-05
     28520   2091.4667      0.00017828516  2.1798128e-05
     28540   2092.9333      0.00017802064  2.1790648e-05
     28560   2094.4         0.00017776921  2.179039e-05 
     28580   2095.8667      0.00017753221  2.1797446e-05
     28600   2097.3333      0.00017731065  2.1811927e-05
     28620   2098.8         0.00017710527  2.1833834e-05
     28640   2100.2667      0.00017691666  2.1862897e-05
     28660   2101.7333      0.00017674515  2.1898501e-05
     28680   2103.2         0.00017659076  2.1939691e-05
     28700   2104.6667      0.00017645291  2.1985299e-05
     28720   2106.1333      0.0001763302   2.2033718e-05
     28740   2107.6         0.00017621996  2.2082907e-05
     28760   2109.0667      0.00017611812  2.2130576e-05
     28780   2110.5333      0.00017601931  2.2174442e-05
     28800   2112           0.0001759177   2.2212473e-05
     28820   2113.4667      0.00017580822  2.2243089e-05
     28840   2114.9333      0.00017568808  2.2265494e-05
     28860   2116.4         0.0001755575   2.2279318e-05
     28880   2117.8667      0.00017541929  2.2284279e-05
     28900   2119.3333      0.00017527776  2.2280148e-05
     28920   2120.8         0.00017513751  2.2266877e-05
     28940   2122.2667      0.0001750028   2.2244937e-05
     28960   2123.7333      0.00017487725  2.2215412e-05
     28980   2125.2         0.00017476368  2.2179576e-05
     29000   2126.6667      0.00017466404  2.2138407e-05
     29020   2128.1333      0.00017457937  2.2066438e-05
     29040   2129.6         0.00017451001  2.201336e-05 
     29060   2131.0667      0.00017445593  2.1956004e-05
     29080   2132.5333      0.00017441694  2.1894458e-05
     29100   2134           0.00017439241  2.1828681e-05
     29120   2135.4667      0.00017438144  2.1758584e-05
     29140   2136.9333      0.00017438286  2.1684082e-05
     29160   2138.4         0.0001743953   2.1605291e-05
     29180   2139.8667      0.00017441729  2.1522656e-05
     29200   2141.3333      0.00017444727  2.1436853e-05
     29220   2142.8         0.00017448378  2.1348665e-05
     29240   2144.2667      0.00017452536  2.1258801e-05
     29260   2145.7333      0.00017457063  2.1167889e-05
     29280   2147.2         0.00017461858  2.1076825e-05
     29300   2148.6667      0.00017466887  2.0986654e-05
     29320   2150.1333      0.00017472184  2.0898401e-05
     29340   2151.6         0.00017477833  2.0813022e-05
     29360   2153.0667      0.00017483925  2.0731295e-05
     29380   2154.5333      0.00017490497  2.0653726e-05
     29400   2156           0.000174975    2.0580391e-05
     29420   2157.4667      0.00017504843  2.0511317e-05
     29440   2158.9333      0.00017512449  2.0446756e-05
     29460   2160.4         0.000175203    2.0387263e-05
     29480   2161.8667      0.00017528471  2.033367e-05 
     29500   2163.3333      0.00017537125  2.0287118e-05
     29520   2164.8         0.00017546505  2.0248812e-05
     29540   2166.2667      0.00017556889  2.0219783e-05
     29560   2167.7333      0.00017568551  2.0200774e-05
     29580   2169.2         0.0001758172   2.01921e-05  
     29600   2170.6667      0.00017596557  2.0193803e-05
     29620   2172.1333      0.00017613133  2.0205802e-05
     29640   2173.6         0.0001763144   2.0227941e-05
     29660   2175.0667      0.00017651404  2.0259816e-05
     29680   2176.5333      0.00017672918  2.030113e-05 
     29700   2178           0.00017695879  2.0351733e-05
     29720   2179.4667      0.0001772022   2.0411537e-05
     29740   2180.9333      0.00017745922  2.0480535e-05
     29760   2182.4         0.00017773009  2.0558528e-05
     29780   2183.8667      0.00017801524  2.0645152e-05
     29800   2185.3333      0.00017831497  2.0739851e-05
     29820   2186.8         0.0001786293   2.0842193e-05
     29840   2188.2667      0.00017895779  2.0951832e-05
     29860   2189.7333      0.00017929955  2.1068473e-05
     29880   2191.2         0.0001796532   2.1191862e-05
     29900   2192.6667      0.00018001722  2.1321854e-05
     29920   2194.1333      0.00018039025  2.1458122e-05
     29940   2195.6         0.00018077129  2.1600276e-05
     29960   2197.0667      0.00018115972  2.1747858e-05
     29980   2198.5333      0.00018155519  2.1900271e-05
     30000   2200           0.00018195744  2.2056713e-05
Loop time of 90.1235 on 1 procs for 30000 steps with 3046 atoms

Performance: 2109105.176 tau/day, 332.876 timesteps/s, 1.014 Matom-step/s
99.5% CPU use with 1 MPI tasks x 1 OpenMP threads

MPI task timing breakdown:
Section |  min time  |  avg time  |  max time  |%varavg| %total
---------------------------------------------------------------
Pair    | 19.201     | 19.201     | 19.201     |   0.0 | 21.30
Neigh   | 2.067      | 2.067      | 2.067      |   0.0 |  2.29
Comm    | 0.011853   | 0.011853   | 0.011853   |   0.0 |  0.01
Output  | 0.023551   | 0.023551   | 0.023551   |   0.0 |  0.03
Modify  | 68.65      | 68.65      | 68.65      |   0.0 | 76.17
Other   |            | 0.17       |            |       |  0.19

Nlocal:           3046 ave        3046 max        3046 min
Histogram: 1 0 0 0 0 0 0 0 0 0
Nghost:              0 ave           0 max           0 min
Histogram: 1 0 0 0 0 0 0 0 0 0
Neighs:          24274 ave       24274 max       24274 min
Histogram: 1 0 0 0 0 0 0 0 0 0
FullNghs:        48548 ave       48548 max       48548 min
Histogram: 1 0 0 0 0 0 0 0 0 0

Total # of neighbors = 48548
Ave neighs/atom = 15.93828
Neighbor list builds = 2989
Dangerous builds = 0
Total wall time: 0:01:30
