LAMMPS (4 Jul 2026 - Development - patch_4Jul2026-848-gd03be1b44b)
  using 1 OpenMP thread(s) per MPI task
# ------ 2D dam break ------ #

dimension          2
units              lj
atom_style         rheo
boundary           f s p
comm_modify        vel yes
newton             off

# ------ Create simulation box ------ #

variable           n equal 1.0
variable           cut equal 2.2
variable           dx equal 3.0

region             box block -1 150 -1 80 -0.1 0.1 units box
create_box         2 box
Created orthogonal box = (-1 -1 -0.1) to (150 80 0.1)
  2 by 2 by 1 MPI processor grid
lattice            hex ${n}
lattice            hex 1
Lattice spacing in x,y,z = 1.0745699 1.8612097 1.0745699

region             fluid block $(xlo+v_dx+1.0) $(xlo+40.0) $(ylo+v_dx+1.0) $(yhi-20.0) EDGE EDGE units box
region             fluid block 3 $(xlo+40.0) $(ylo+v_dx+1.0) $(yhi-20.0) EDGE EDGE units box
region             fluid block 3 39 $(ylo+v_dx+1.0) $(yhi-20.0) EDGE EDGE units box
region             fluid block 3 39 2.991900000000000226 $(yhi-20.0) EDGE EDGE units box
region             fluid block 3 39 2.991900000000000226 60.008099999999998886 EDGE EDGE units box
region             walls1 block $(xlo+v_dx) $(xhi-v_dx) $(ylo+v_dx) $(yhi-v_dx) EDGE EDGE side out units box
region             walls1 block 2 $(xhi-v_dx) $(ylo+v_dx) $(yhi-v_dx) EDGE EDGE side out units box
region             walls1 block 2 147 $(ylo+v_dx) $(yhi-v_dx) EDGE EDGE side out units box
region             walls1 block 2 147 1.9919000000000000039 $(yhi-v_dx) EDGE EDGE side out units box
region             walls1 block 2 147 1.9919000000000000039 77.008099999999998886 EDGE EDGE side out units box
region             walls2 block EDGE EDGE EDGE $(yhi-v_dx) EDGE EDGE side in units box
region             walls2 block EDGE EDGE EDGE 77.008099999999998886 EDGE EDGE side in units box
region             walls intersect 2 walls1 walls2

create_atoms       1 region fluid
Created 2044 atoms
  using lattice units in orthogonal box = (-1 -1.0081 -0.1) to (150 80.0081 0.1)
  create_atoms CPU = 0.001 seconds
create_atoms       2 region walls
Created 1002 atoms
  using lattice units in orthogonal box = (-1 -1.0081 -0.1) to (150 80.0081 0.1)
  create_atoms CPU = 0.000 seconds

group              fluid type 1
2044 atoms in group fluid
group              rig type 2
1002 atoms in group rig

# ------ Model parameters ------ #

variable           rho0 equal 1.0
variable           mp equal ${rho0}/${n}
variable           mp equal 1/${n}
variable           mp equal 1/1
variable           cs equal 1.0
variable           zeta equal 0.1
variable           dt_max equal  0.1*${cut}/${cs}/3
variable           dt_max equal  0.1*2.2/${cs}/3
variable           dt_max equal  0.1*2.2/1/3
variable           eta equal 0.1
variable           Dr equal 0.1

mass               1 ${mp}
mass               1 1
mass               2 $(2*v_mp)
mass               2 2
set                group all rheo/rho ${rho0}
set                group all rheo/rho 1
Setting atom values ...
  3046 settings made for rheo/rho

set                group all rheo/status 0
Setting atom values ...
  3046 settings made for rheo/status
set                group rig rheo/status 1
Setting atom values ...
  1002 settings made for rheo/status

timestep           ${dt_max}
timestep           0.0733333333333333

pair_style         rheo ${cut} artificial/visc ${zeta} #rho/damp ${Dr}
pair_style         rheo 2.2 artificial/visc ${zeta} 
pair_style         rheo 2.2 artificial/visc 0.1 
pair_coeff         * *

# ------ Fixes & computes ------ #

fix                1 all rheo ${cut} quintic 10                               surface/detection coordination 22 8                               rho/sum
fix                1 all rheo 2.2 quintic 10                               surface/detection coordination 22 8                               rho/sum
fix                2 all rheo/viscosity * constant ${eta}
fix                2 all rheo/viscosity * constant 0.1
fix                3 all rheo/pressure * linear
fix                4 all gravity 1e-3 vector 0 -1 0
fix                5 rig setforce 0.0 0.0 0.0
fix                6 all enforce2d

compute            rho all rheo/property/atom rho
compute            p all rheo/property/atom pressure
compute            surf all rheo/property/atom surface
compute            sn all rheo/property/atom surface/n/x surface/n/y

# ------ Output & Run ------ #

thermo             20
thermo_style       custom step time ke press

#dump               1 all custom 200 atomDump id type x y vx vy fx fy c_rho c_surf c_p c_sn[*]

run                30000

CITE-CITE-CITE-CITE-CITE-CITE-CITE-CITE-CITE-CITE-CITE-CITE-CITE

Your simulation uses code contributions which should be cited:

- RHEO package: https://doi.org/10.1063/5.0228823

@article{Palermo2024,
 journal = {Physics of Fluids},
 title = {Reproducing hydrodynamics and elastic objects: A hybrid mesh-free model framework for dynamic multi-phase flows},
 volume = {36},
 number = {11},
 pages = {113337},
 year = {2024},
 issn = {1070-6631},
 doi = {https://doi.org/10.1063/5.0228823},
 author = {Palermo, Eric T. and Wolf, Ki T. and Clemmer, Joel T. and O'Connor, Thomas C.},
}

CITE-CITE-CITE-CITE-CITE-CITE-CITE-CITE-CITE-CITE-CITE-CITE-CITE

Generated 0 of 1 mixed pair_coeff terms from geometric mixing rule
Neighbor list info ...
  update: every = 1 steps, delay = 0 steps, check = yes
  max neighbors/atom: 2000, page size: 100000
  master list distance cutoff = 2.5
  ghost atom cutoff = 2.5
  binsize = 1.25, bins = 121 65 1
  5 neighbor lists, perpetual/occasional/extra = 5 0 0
  (1) pair rheo, perpetual, half/full from (2)
      attributes: half, newton off
      pair build: halffull/newtoff
      stencil: none
      bin: none
  (2) compute RHEO/KERNEL, perpetual
      attributes: full, newton off
      pair build: full/bin/atomonly
      stencil: full/bin/2d
      bin: standard
  (3) compute RHEO/GRAD, perpetual, copy from (1)
      attributes: half, newton off
      pair build: copy
      stencil: none
      bin: none
  (4) compute RHEO/RHO/SUM, perpetual, copy from (1)
      attributes: half, newton off
      pair build: copy
      stencil: none
      bin: none
  (5) compute RHEO/SURFACE, perpetual, copy from (1)
      attributes: half, newton off
      pair build: copy
      stencil: none
      bin: none
Per MPI rank memory allocation (min/avg/max) = 5.707 | 5.721 | 5.736 Mbytes
   Step          Time          KinEng         Press     
         0   0              0             -1.1553821e-05
        20   1.4666667      0.00032511552  8.0845568e-05
        40   2.9333333      6.305e-05      1.586925e-05 
        60   4.4            5.9297363e-05  1.8860959e-05
        80   5.8666667      4.6335505e-05  1.2090274e-05
       100   7.3333333      3.8427958e-05  8.0533255e-06
       120   8.8            4.6488008e-05  1.1154321e-05
       140   10.266667      4.9644545e-05  1.1027153e-05
       160   11.733333      5.8290119e-05  1.2262654e-05
       180   13.2           6.7528716e-05  1.4406923e-05
       200   14.666667      7.8558074e-05  1.6389997e-05
       220   16.133333      9.0502857e-05  1.8476362e-05
       240   17.6           0.00010383362  2.1200013e-05
       260   19.066667      0.00011877679  2.4333711e-05
       280   20.533333      0.00013438545  2.8161444e-05
       300   22             0.00015041935  3.3403353e-05
       320   23.466667      0.00016855814  4.0235844e-05
       340   24.933333      0.00018753753  4.7027359e-05
       360   26.4           0.00020643423  5.1828224e-05
       380   27.866667      0.00022727663  5.4395468e-05
       400   29.333333      0.00024876119  5.5800689e-05
       420   30.8           0.00027042977  5.8594863e-05
       440   32.266667      0.00029370537  6.5286775e-05
       460   33.733333      0.00031811541  7.393231e-05 
       480   35.2           0.00034326028  8.245252e-05 
       500   36.666667      0.00036860906  9.0557949e-05
       520   38.133333      0.0003942454   9.8424393e-05
       540   39.6           0.00042055645  0.00010563886
       560   41.066667      0.00044731485  0.0001113407 
       580   42.533333      0.00047469362  0.00011568791
       600   44             0.00050281255  0.00012000835
       620   45.466667      0.00053150026  0.00012571606
       640   46.933333      0.00056055314  0.00013321191
       660   48.4           0.00058981732  0.00014171049
       680   49.866667      0.00061933416  0.00014996906
       700   51.333333      0.00064912894  0.00015761482
       720   52.8           0.00067914136  0.00016511998
       740   54.266667      0.00070940662  0.00017197084
       760   55.733333      0.00073994669  0.00017998571
       780   57.2           0.00077075415  0.00018868077
       800   58.666667      0.0008018914   0.0001975296 
       820   60.133333      0.00083343362  0.00020601419
       840   61.6           0.00086548419  0.00021383371
       860   63.066667      0.00089816124  0.00022136988
       880   64.533333      0.00093148977  0.00022888223
       900   66             0.00096539212  0.00023647229
       920   67.466667      0.00099981785  0.00024400227
       940   68.933333      0.0010348644   0.00025162078
       960   70.4           0.0010706754   0.00025869131
       980   71.866667      0.0011072581   0.0002665943 
      1000   73.333333      0.0011445127   0.00027466948
      1020   74.8           0.0011823428   0.00029395803
      1040   76.266667      0.0012206735   0.00030289566
      1060   77.733333      0.0012594802   0.00031221442
      1080   79.2           0.001298868    0.00032208678
      1100   80.666667      0.0013390383   0.00033251707
      1120   82.133333      0.0013801634   0.00034363177
      1140   83.6           0.001422309    0.00035429708
      1160   85.066667      0.0014654158   0.00036668393
      1180   86.533333      0.0015093557   0.00037970773
      1200   88             0.0015540312   0.00039332295
      1220   89.466667      0.0015994327   0.00040736507
      1240   90.933333      0.0016455967   0.00042176371
      1260   92.4           0.0016924855   0.00043641978
      1280   93.866667      0.0017399164   0.00045125193
      1300   95.333333      0.0017876277   0.00046612964
      1320   96.8           0.0018354799   0.00048075507
      1340   98.266667      0.001883632    0.00049632504
      1360   99.733333      0.0019324584   0.00050911064
      1380   101.2          0.0019822402   0.00052346974
      1400   102.66667      0.0020329245   0.00053721353
      1420   104.13333      0.0020842944   0.0005502489 
      1440   105.6          0.0021363452   0.00056323225
      1460   107.06667      0.0021892039   0.00057563705
      1480   108.53333      0.0022426862   0.00058825712
      1500   110            0.0022963873   0.0006012268 
      1520   111.46667      0.0023502698   0.00061459535
      1540   112.93333      0.0024046564   0.00062842381
      1560   114.4          0.0024596327   0.00064253371
      1580   115.86667      0.0025149922   0.00065669518
      1600   117.33333      0.0025706757   0.00067055493
      1620   118.8          0.0026266777   0.00068412035
      1640   120.26667      0.002682847    0.00069763113
      1660   121.73333      0.0027392572   0.00071081943
      1680   123.2          0.0027963112   0.00072461687
      1700   124.66667      0.0028540281   0.00073868257
      1720   126.13333      0.0029119429   0.00075290189
      1740   127.6          0.0029700277   0.00076723725
      1760   129.06667      0.0030286675   0.00078196149
      1780   130.53333      0.0030876387   0.00079685128
      1800   132            0.0031464754   0.00081173004
      1820   133.46667      0.0032053937   0.00082671156
      1840   134.93333      0.0032646645   0.00084123473
      1860   136.4          0.0033239614   0.00085592351
      1880   137.86667      0.003382957    0.00087032706
      1900   139.33333      0.0034418072   0.00088465929
      1920   140.8          0.0035007717   0.00089909935
      1940   142.26667      0.0035598      0.00091371648
      1960   143.73333      0.0036186515   0.00092853699
      1980   145.2          0.0036773382   0.00094336365
      2000   146.66667      0.0037361146   0.00095859451
      2020   148.13333      0.0037949944   0.0009756871 
      2040   149.6          0.0038538047   0.0009910721 
      2060   151.06667      0.0039123982   0.0010065748 
      2080   152.53333      0.0039705441   0.0010220309 
      2100   154            0.0040284629   0.0010376241 
      2120   155.46667      0.004086794    0.00105333   
      2140   156.93333      0.0041453577   0.0010691612 
      2160   158.4          0.0042032666   0.0010847349 
      2180   159.86667      0.0042604916   0.0011001504 
      2200   161.33333      0.0043176719   0.0011155492 
      2220   162.8          0.0043749559   0.001130737  
      2240   164.26667      0.0044320912   0.0011458346 
      2260   165.73333      0.004488907    0.001160636  
      2280   167.2          0.0045454608   0.0011753985 
      2300   168.66667      0.0046019826   0.0011899374 
      2320   170.13333      0.0046583801   0.0012044165 
      2340   171.6          0.0047143295   0.0012186248 
      2360   173.06667      0.0047700518   0.0012326281 
      2380   174.53333      0.004825842    0.001246921  
      2400   176            0.0048814352   0.0012608782 
      2420   177.46667      0.0049368699   0.0012749087 
      2440   178.93333      0.0049923837   0.0012885723 
      2460   180.4          0.0050476678   0.0013023925 
      2480   181.86667      0.0051028744   0.0013157643 
      2500   183.33333      0.0051583598   0.001329433  
      2520   184.8          0.0052134538   0.0013429315 
      2540   186.26667      0.005268092    0.0013564574 
      2560   187.73333      0.0053232608   0.0013700903 
      2580   189.2          0.0053784614   0.0013837849 
      2600   190.66667      0.0054323859   0.0013971436 
      2620   192.13333      0.005485368    0.0014103773 
      2640   193.6          0.005538147    0.0014235555 
      2660   195.06667      0.0055903241   0.0014367211 
      2680   196.53333      0.0056420605   0.0014498538 
      2700   198            0.0056939656   0.001462942  
      2720   199.46667      0.0057448558   0.0014759466 
      2740   200.93333      0.005794243    0.0014889149 
      2760   202.4          0.0058437202   0.0015011789 
      2780   203.86667      0.0058927061   0.0015142113 
      2800   205.33333      0.0059400654   0.001526657  
      2820   206.8          0.0059873268   0.0015389223 
      2840   208.26667      0.0060345695   0.0015514003 
      2860   209.73333      0.0060807206   0.0015628716 
      2880   211.2          0.0061264208   0.0015744567 
      2900   212.66667      0.0061716649   0.0015859279 
      2920   214.13333      0.0062163267   0.0015967197 
      2940   215.6          0.0062608002   0.001607052  
      2960   217.06667      0.0063044467   0.0016176717 
      2980   218.53333      0.0063477253   0.0016286992 
      3000   220            0.0063915934   0.0016397016 
      3020   221.46667      0.0064353602   0.0016607674 
      3040   222.93333      0.0064788373   0.00167319   
      3060   224.4          0.0065223779   0.0016842186 
      3080   225.86667      0.006565856    0.001694671  
      3100   227.33333      0.0066091386   0.001705345  
      3120   228.8          0.0066522179   0.0017154759 
      3140   230.26667      0.006695239    0.001725583  
      3160   231.73333      0.0067377973   0.0017357884 
      3180   233.2          0.0067801755   0.001745738  
      3200   234.66667      0.0068228778   0.0017560169 
      3220   236.13333      0.0068649943   0.0017653765 
      3240   237.6          0.0069073067   0.0017758092 
      3260   239.06667      0.0069504155   0.0017865378 
      3280   240.53333      0.0069919977   0.0017968223 
      3300   242            0.0070322825   0.0018074843 
      3320   243.46667      0.0070736559   0.0018180619 
      3340   244.93333      0.0071154711   0.001828537  
      3360   246.4          0.0071557915   0.0018388919 
      3380   247.86667      0.0071948821   0.0018493773 
      3400   249.33333      0.0072335904   0.0018588687 
      3420   250.8          0.0072712368   0.0018686449 
      3440   252.26667      0.0073083266   0.0018781173 
      3460   253.73333      0.0073452523   0.0018880222 
      3480   255.2          0.0073809447   0.0018970612 
      3500   256.66667      0.0074161748   0.0019062424 
      3520   258.13333      0.0074509019   0.0019155134 
      3540   259.6          0.0074845853   0.0019249288 
      3560   261.06667      0.0075182723   0.0019335029 
      3580   262.53333      0.0075509676   0.0019414827 
      3600   264            0.0075827043   0.0019502159 
      3620   265.46667      0.0076142545   0.0019577373 
      3640   266.93333      0.007644864    0.0019660271 
      3660   268.4          0.0076758971   0.0019744435 
      3680   269.86667      0.0077074991   0.0019829514 
      3700   271.33333      0.0077378509   0.0019919106 
      3720   272.8          0.0077674252   0.0019993582 
      3740   274.26667      0.0077972928   0.0020077093 
      3760   275.73333      0.0078272445   0.0020163831 
      3780   277.2          0.0078570847   0.0020238445 
      3800   278.66667      0.0078869318   0.0020316731 
      3820   280.13333      0.0079169645   0.0020401549 
      3840   281.6          0.0079473319   0.002048803  
      3860   283.06667      0.0079778531   0.0020565177 
      3880   284.53333      0.0080083112   0.0020652829 
      3900   286            0.0080387085   0.0020739419 
      3920   287.46667      0.0080693433   0.0020833889 
      3940   288.93333      0.0081009997   0.0020916014 
      3960   290.4          0.0081324269   0.0021004776 
      3980   291.86667      0.0081623754   0.0021082193 
      4000   293.33333      0.0081927273   0.0021167899 
      4020   294.8          0.0082244917   0.0021254436 
      4040   296.26667      0.0082558675   0.0021334734 
      4060   297.73333      0.0082865743   0.0021418085 
      4080   299.2          0.008317834    0.0021499754 
      4100   300.66667      0.0083487592   0.0021583796 
      4120   302.13333      0.0083791443   0.0021658975 
      4140   303.6          0.0084095784   0.0021741837 
      4160   305.06667      0.0084401937   0.0021823957 
      4180   306.53333      0.0084709096   0.0021897966 
      4200   308            0.0085008314   0.0021987043 
      4220   309.46667      0.0085305774   0.0022055177 
      4240   310.93333      0.0085600907   0.0022134108 
      4260   312.4          0.0085890462   0.002220166  
      4280   313.86667      0.0086176748   0.0022271241 
      4300   315.33333      0.0086457386   0.0022343588 
      4320   316.8          0.0086737585   0.0022418828 
      4340   318.26667      0.0087010807   0.0022483986 
      4360   319.73333      0.0087280644   0.00225516   
      4380   321.2          0.0087546499   0.0022615854 
      4400   322.66667      0.008780831    0.0022682817 
      4420   324.13333      0.0088071825   0.0022750679 
      4440   325.6          0.0088321298   0.0022814812 
      4460   327.06667      0.0088572755   0.0022879477 
      4480   328.53333      0.0088825034   0.0022942485 
      4500   330            0.008906397    0.0022994865 
      4520   331.46667      0.0089309496   0.0023058659 
      4540   332.93333      0.0089547286   0.0023112637 
      4560   334.4          0.0089780019   0.0023165397 
      4580   335.86667      0.0090022071   0.0023219625 
      4600   337.33333      0.0090250403   0.0023288255 
      4620   338.8          0.0090470902   0.0023331512 
      4640   340.26667      0.009069282    0.0023392466 
      4660   341.73333      0.0090907611   0.0023438853 
      4680   343.2          0.0091124427   0.0023490973 
      4700   344.66667      0.0091339496   0.0023548854 
      4720   346.13333      0.0091537311   0.0023609915 
      4740   347.6          0.009173263    0.0023652008 
      4760   349.06667      0.0091939188   0.0023706997 
      4780   350.53333      0.0092136259   0.0023758657 
      4800   352            0.0092318228   0.0023805599 
      4820   353.46667      0.0092503682   0.002385901  
      4840   354.93333      0.0092688782   0.0023904469 
      4860   356.4          0.0092869353   0.0023947556 
      4880   357.86667      0.0093055447   0.002401304  
      4900   359.33333      0.0093236429   0.0024048521 
      4920   360.8          0.0093411573   0.0024101668 
      4940   362.26667      0.0093591279   0.002415013  
      4960   363.73333      0.0093766226   0.0024191765 
      4980   365.2          0.0093942657   0.0024237246 
      5000   366.66667      0.0094124151   0.0024291925 
      5020   368.13333      0.0094298866   0.0024362964 
      5040   369.6          0.0094473787   0.0024418538 
      5060   371.06667      0.0094652437   0.0024460008 
      5080   372.53333      0.0094825396   0.002449651  
      5100   374            0.0095005196   0.0024548686 
      5120   375.46667      0.0095190441   0.0024594282 
      5140   376.93333      0.0095367698   0.0024640802 
      5160   378.4          0.009555275    0.0024696488 
      5180   379.86667      0.0095740082   0.002473974  
      5200   381.33333      0.009592423    0.0024792041 
      5220   382.8          0.0096109812   0.0024852023 
      5240   384.26667      0.0096294532   0.0024891639 
      5260   385.73333      0.0096482998   0.002495046  
      5280   387.2          0.0096670547   0.002500084  
      5300   388.66667      0.0096858667   0.0025052516 
      5320   390.13333      0.0097040351   0.002510904  
      5340   391.6          0.0097221033   0.0025160084 
      5360   393.06667      0.0097405149   0.0025211526 
      5380   394.53333      0.0097580545   0.0025266905 
      5400   396            0.0097755466   0.002531309  
      5420   397.46667      0.0097930161   0.0025366396 
      5440   398.93333      0.0098107329   0.0025436128 
      5460   400.4          0.0098284234   0.0025469682 
      5480   401.86667      0.0098451555   0.0025517829 
      5500   403.33333      0.0098622191   0.0025575445 
      5520   404.8          0.0098790618   0.0025615579 
      5540   406.26667      0.0098957203   0.0025658562 
      5560   407.73333      0.0099131987   0.0025709245 
      5580   409.2          0.0099293333   0.0025753706 
      5600   410.66667      0.0099456607   0.0025796292 
      5620   412.13333      0.0099626015   0.0025848098 
      5640   413.6          0.0099788857   0.0025884145 
      5660   415.06667      0.0099954819   0.0025921851 
      5680   416.53333      0.010011773    0.0025969767 
      5700   418            0.010028219    0.0026005403 
      5720   419.46667      0.010044251    0.0026047494 
      5740   420.93333      0.010059923    0.0026084779 
      5760   422.4          0.010075731    0.0026128668 
      5780   423.86667      0.010091249    0.0026158069 
      5800   425.33333      0.010105814    0.002618986  
      5820   426.8          0.010120802    0.0026226614 
      5840   428.26667      0.010135689    0.0026267217 
      5860   429.73333      0.010150024    0.0026302209 
      5880   431.2          0.010164737    0.0026333969 
      5900   432.66667      0.010178385    0.0026368124 
      5920   434.13333      0.010192501    0.0026408301 
      5940   435.6          0.010205632    0.0026435037 
      5960   437.06667      0.010218121    0.0026462974 
      5980   438.53333      0.010230926    0.0026498226 
      6000   440            0.010243385    0.0026529845 
      6020   441.46667      0.01025573     0.002655222  
      6040   442.93333      0.010267499    0.0026579419 
      6060   444.4          0.010278357    0.0026612955 
      6080   445.86667      0.010270091    0.0026596977 
      6100   447.33333      0.010248075    0.00265554   
      6120   448.8          0.010229008    0.0026504844 
      6140   450.26667      0.010176792    0.0026358368 
      6160   451.73333      0.010159391    0.0026299998 
      6180   453.2          0.010132303    0.0026225129 
      6200   454.66667      0.01009809     0.0026079164 
      6220   456.13333      0.010050263    0.0025939968 
      6240   457.6          0.01002274     0.0025937776 
      6260   459.06667      0.010000392    0.0025904743 
      6280   460.53333      0.0099589535   0.0025824843 
      6300   462            0.0099380259   0.0025763328 
      6320   463.46667      0.0099270877   0.002570133  
      6340   464.93333      0.0098975308   0.0025599245 
      6360   466.4          0.0098650245   0.0025507567 
      6380   467.86667      0.0098389026   0.0025437161 
      6400   469.33333      0.0098142368   0.0025369205 
      6420   470.8          0.0097805883   0.0025294259 
      6440   472.26667      0.0097496774   0.0025213197 
      6460   473.73333      0.0097258086   0.0025145775 
      6480   475.2          0.0096982877   0.0025093277 
      6500   476.66667      0.0096658636   0.0025027361 
      6520   478.13333      0.0096339461   0.0024938229 
      6540   479.6          0.0095983247   0.0024841324 
      6560   481.06667      0.009564946    0.0024758464 
      6580   482.53333      0.0095341413   0.0024670222 
      6600   484            0.0095001163   0.0024581597 
      6620   485.46667      0.0094673655   0.0024506322 
      6640   486.93333      0.0094442339   0.0024462242 
      6660   488.4          0.0094176505   0.0024415262 
      6680   489.86667      0.009383762    0.0024330426 
      6700   491.33333      0.0093516962   0.0024240739 
      6720   492.8          0.0093219129   0.0024150676 
      6740   494.26667      0.0092950869   0.0024064793 
      6760   495.73333      0.0092673941   0.0023990809 
      6780   497.2          0.0092358913   0.0023922976 
      6800   498.66667      0.0092075978   0.002385888  
      6820   500.13333      0.0091839466   0.0023783637 
      6840   501.6          0.0091597633   0.0023713    
      6860   503.06667      0.0091339176   0.002364772  
      6880   504.53333      0.0091045902   0.0023582237 
      6900   506            0.0090733425   0.0023512985 
      6920   507.46667      0.0090447209   0.002344073  
      6940   508.93333      0.0090161164   0.0023373736 
      6960   510.4          0.0089888289   0.0023292964 
      6980   511.86667      0.0089630002   0.0023229345 
      7000   513.33333      0.0089340047   0.0023167185 
      7020   514.8          0.0089050481   0.0023083545 
      7040   516.26667      0.0088782599   0.0023012676 
      7060   517.73333      0.0088498749   0.002294172  
      7080   519.2          0.0088186493   0.0022858486 
      7100   520.66667      0.0087879346   0.002277267  
      7120   522.13333      0.0087570835   0.0022687405 
      7140   523.6          0.0087241937   0.0022607378 
      7160   525.06667      0.0086897618   0.0022509833 
      7180   526.53333      0.0086548294   0.0022407023 
      7200   528            0.0086226606   0.0022313679 
      7220   529.46667      0.0085926298   0.0022230067 
      7240   530.93333      0.0085620298   0.0022154126 
      7260   532.4          0.008530816    0.0022078351 
      7280   533.86667      0.0085000146   0.0022006246 
      7300   535.33333      0.0084702698   0.0021931224 
      7320   536.8          0.0084394709   0.0021849897 
      7340   538.26667      0.008406264    0.0021774804 
      7360   539.73333      0.008372387    0.0021686246 
      7380   541.2          0.0083397122   0.0021582515 
      7400   542.66667      0.008307597    0.0021494474 
      7420   544.13333      0.008276432    0.0021408418 
      7440   545.6          0.0082466316   0.0021344459 
      7460   547.06667      0.0082164387   0.0021264794 
      7480   548.53333      0.0081844103   0.0021187365 
      7500   550            0.0081504718   0.0021116796 
      7520   551.46667      0.0081167866   0.0021030371 
      7540   552.93333      0.0080848171   0.0020943748 
      7560   554.4          0.0080540215   0.0020861481 
      7580   555.86667      0.008023273    0.0020791592 
      7600   557.33333      0.0079924765   0.0020716521 
      7620   558.8          0.007961838    0.0020628445 
      7640   560.26667      0.0079305105   0.0020545857 
      7660   561.73333      0.0078987801   0.0020466798 
      7680   563.2          0.0078669221   0.0020394782 
      7700   564.66667      0.0078343814   0.0020306673 
      7720   566.13333      0.0078008293   0.0020218859 
      7740   567.6          0.0077667967   0.0020133142 
      7760   569.06667      0.0077331492   0.0020046949 
      7780   570.53333      0.0077001493   0.0019964745 
      7800   572            0.0076674343   0.0019874878 
      7820   573.46667      0.0076348234   0.0019785865 
      7840   574.93333      0.0076027791   0.0019697728 
      7860   576.4          0.0075718579   0.0019616582 
      7880   577.86667      0.0075420333   0.0019530783 
      7900   579.33333      0.0075124767   0.0019451136 
      7920   580.8          0.0074820483   0.0019377085 
      7940   582.26667      0.0074502357   0.0019305642 
      7960   583.73333      0.0074175558   0.0019213409 
      7980   585.2          0.0073848251   0.0019128208 
      8000   586.66667      0.007352346    0.0019042023 
      8020   588.13333      0.0073201718   0.0018964748 
      8040   589.6          0.0072885629   0.0018880719 
      8060   591.06667      0.0072571768   0.0018787828 
      8080   592.53333      0.0072252971   0.0018701795 
      8100   594            0.0071925776   0.0018615646 
      8120   595.46667      0.0071589227   0.0018529537 
      8140   596.93333      0.0071243956   0.0018442624 
      8160   598.4          0.007089422    0.0018354252 
      8180   599.86667      0.0070547921   0.0018258805 
      8200   601.33333      0.0070204351   0.0018169063 
      8220   602.8          0.0069853777   0.0018073017 
      8240   604.26667      0.0069497148   0.0017976707 
      8260   605.73333      0.0069143915   0.0017885399 
      8280   607.2          0.0068791277   0.0017788479 
      8300   608.66667      0.0068431543   0.0017692294 
      8320   610.13333      0.0068068584   0.001759715  
      8340   611.6          0.0067703636   0.0017503467 
      8360   613.06667      0.0067324593   0.0017413774 
      8380   614.53333      0.0066929368   0.0017308076 
      8400   616            0.0066537061   0.0017211463 
      8420   617.46667      0.0066159516   0.001711486  
      8440   618.93333      0.0065784188   0.0017029643 
      8460   620.4          0.0065397132   0.0016925204 
      8480   621.86667      0.0065004663   0.0016823861 
      8500   623.33333      0.006461834    0.0016723424 
      8520   624.8          0.0064235964   0.0016628271 
      8540   626.26667      0.006385396    0.0016536472 
      8560   627.73333      0.0063480379   0.001643666  
      8580   629.2          0.00631219     0.0016343404 
      8600   630.66667      0.0062771534   0.001621228  
      8620   632.13333      0.0062419446   0.0016020572 
      8640   633.6          0.0062065839   0.0015835893 
      8660   635.06667      0.0061715185   0.0015645615 
      8680   636.53333      0.0061368606   0.0015462977 
      8700   638            0.0061026099   0.0015319212 
      8720   639.46667      0.0060688426   0.001514856  
      8740   640.93333      0.0060354483   0.001496603  
      8760   642.4          0.0060021203   0.0014792416 
      8780   643.86667      0.0059687198   0.0014626232 
      8800   645.33333      0.0059353164   0.0014461153 
      8820   646.8          0.0059019781   0.0014303438 
      8840   648.26667      0.0058688247   0.0014173079 
      8860   649.73333      0.0058360549   0.0014015526 
      8880   651.2          0.0058035812   0.0013860454 
      8900   652.66667      0.0057707791   0.0013705878 
      8920   654.13333      0.0057372179   0.0013556025 
      8940   655.6          0.0057032752   0.0013404907 
      8960   657.06667      0.0056694823   0.0013254344 
      8980   658.53333      0.0056357422   0.0013128138 
      9000   660            0.0056016652   0.0012982554 
      9020   661.46667      0.0055672433   0.0012829437 
      9040   662.93333      0.0055328211   0.0012691823 
      9060   664.4          0.0054986185   0.0012550183 
      9080   665.86667      0.0054645432   0.0012412445 
      9100   667.33333      0.0054304193   0.0012277084 
      9120   668.8          0.0053963006   0.0012163087 
      9140   670.26667      0.005362421    0.0012037714 
      9160   671.73333      0.0053288895   0.0011896418 
      9180   673.2          0.0052955271   0.0011776115 
      9200   674.66667      0.0052620267   0.0011637184 
      9220   676.13333      0.0052282545   0.001152061  
      9240   677.6          0.005194294    0.0011385639 
      9260   679.06667      0.0051603074   0.0011270129 
      9280   680.53333      0.0051263731   0.0011140692 
      9300   682            0.0050924873   0.001102642  
      9320   683.46667      0.00505864     0.0010893564 
      9340   684.93333      0.0050248158   0.0010784602 
      9360   686.4          0.0049910136   0.0010656287 
      9380   687.86667      0.0049572833   0.0010548665 
      9400   689.33333      0.0049236551   0.0010430447 
      9420   690.8          0.0048900496   0.0010326694 
      9440   692.26667      0.0048563315   0.0010207027 
      9460   693.73333      0.0048225191   0.0010101554 
      9480   695.2          0.0047888431   0.0009982103 
      9500   696.66667      0.0047554594   0.00098821159
      9520   698.13333      0.0047222362   0.00097740228
      9540   699.6          0.0046889412   0.00096725921
      9560   701.06667      0.0046555709   0.00095598677
      9580   702.53333      0.0046222824   0.00094632662
      9600   704            0.0045891245   0.00093543446
      9620   705.46667      0.0045560027   0.00092623539
      9640   706.93333      0.0045229769   0.0009158827 
      9660   708.4          0.0044902999   0.00090696952
      9680   709.86667      0.0044580422   0.00089681052
      9700   711.33333      0.0044258521   0.00088746746
      9720   712.8          0.0043933296   0.00087789036
      9740   714.26667      0.0043605403   0.00086861394
      9760   715.73333      0.004327987    0.00085980221
      9780   717.2          0.0042960281   0.00084927819
      9800   718.66667      0.0042645075   0.00084016752
      9820   720.13333      0.0042330945   0.00083116567
      9840   721.6          0.0042017784   0.00082234445
      9860   723.06667      0.0041707828   0.00081259349
      9880   724.53333      0.0041400566   0.0008043748 
      9900   726            0.004109217    0.00079572418
      9920   727.46667      0.0040780585   0.00078739375
      9940   728.93333      0.0040468425   0.00077922127
      9960   730.4          0.0040159714   0.00077063478
      9980   731.86667      0.0039855191   0.00076261091
     10000   733.33333      0.003955268    0.00075467125
     10020   734.8          0.0039250792   0.00074596245
     10040   736.26667      0.0038950103   0.00073754209
     10060   737.73333      0.0038651189   0.00073026439
     10080   739.2          0.0038353718   0.00072294854
     10100   740.66667      0.0038057931   0.0007156765 
     10120   742.13333      0.0037765658   0.00070826144
     10140   743.6          0.0037478549   0.000700963  
     10160   745.06667      0.0037196227   0.00069393591
     10180   746.53333      0.0036916783   0.00068731615
     10200   748            0.0036638583   0.00068029601
     10220   749.46667      0.0036361018   0.00067335709
     10240   750.93333      0.0036083315   0.00066655098
     10260   752.4          0.0035804253   0.00065986839
     10280   753.86667      0.0035523317   0.00065306557
     10300   755.33333      0.0035241514   0.00064650127
     10320   756.8          0.0034961053   0.00063970551
     10340   758.26667      0.0034683688   0.0006328967 
     10360   759.73333      0.0034409576   0.0006261438 
     10380   761.2          0.0034137856   0.00061958126
     10400   762.66667      0.0033867628   0.00061316751
     10420   764.13333      0.003359857    0.00060652109
     10440   765.6          0.0033330791   0.00060008573
     10460   767.06667      0.0033064228   0.00059416665
     10480   768.53333      0.0032798623   0.00058765064
     10500   770            0.0032533721   0.00058134579
     10520   771.46667      0.0032269662   0.00057485588
     10540   772.93333      0.003200706    0.00056928319
     10560   774.4          0.0031746846   0.00056307106
     10580   775.86667      0.0031489414   0.00055710162
     10600   777.33333      0.0031234327   0.00055108437
     10620   778.8          0.0030980991   0.00054503581
     10640   780.26667      0.0030729303   0.00053906326
     10660   781.73333      0.0030479611   0.0005339694 
     10680   783.2          0.0030231729   0.00052809218
     10700   784.66667      0.0029984868   0.00052282296
     10720   786.13333      0.0029738445   0.00051694751
     10740   787.6          0.0029492929   0.00051121474
     10760   789.06667      0.0029249786   0.00050635216
     10780   790.53333      0.0029009972   0.00050075063
     10800   792            0.0028772877   0.00049541582
     10820   793.46667      0.0028537339   0.00049079753
     10840   794.93333      0.0028303493   0.0004856207 
     10860   796.4          0.0028073043   0.0004806407 
     10880   797.86667      0.0027847294   0.00047656657
     10900   799.33333      0.0027625188   0.00047192618
     10920   800.8          0.0027403964   0.00046717991
     10940   802.26667      0.002718185    0.00046296091
     10960   803.73333      0.0026959726   0.00045811289
     10980   805.2          0.0026740001   0.00045344764
     11000   806.66667      0.002652426    0.00044937707
     11020   808.13333      0.0026312112   0.00044478157
     11040   809.6          0.0026102199   0.00044058853
     11060   811.06667      0.0025893805   0.0004366285 
     11080   812.53333      0.0025687435   0.00043208422
     11100   814            0.0025483886   0.00042831157
     11120   815.46667      0.0025283021   0.00042415869
     11140   816.93333      0.002508409    0.00042047885
     11160   818.4          0.0024886825   0.00041648704
     11180   819.86667      0.0024692054   0.00041282489
     11200   821.33333      0.0024501129   0.00040885508
     11220   822.8          0.0024314337   0.00040538878
     11240   824.26667      0.0024130189   0.0004016827 
     11260   825.73333      0.0023946638   0.00039861818
     11280   827.2          0.0023762928   0.00039478941
     11300   828.66667      0.0023580152   0.00039104387
     11320   830.13333      0.002340033    0.00038728008
     11340   831.6          0.0023224858   0.00038396952
     11360   833.06667      0.0023053744   0.00038030733
     11380   834.53333      0.0022886239   0.00037714091
     11400   836            0.0022721707   0.000374086  
     11420   837.46667      0.0022559929   0.00037041516
     11440   838.93333      0.0022400914   0.00036714041
     11460   840.4          0.0022244448   0.00036381617
     11480   841.86667      0.0022090116   0.00036098215
     11500   843.33333      0.0021937645   0.00035778949
     11520   844.8          0.0021787025   0.00035494135
     11540   846.26667      0.0021638326   0.0003522205 
     11560   847.73333      0.0021491506   0.00034911052
     11580   849.2          0.0021346441   0.00034642803
     11600   850.66667      0.0021203184   0.0003431637 
     11620   852.13333      0.0021062036   0.00034050527
     11640   853.6          0.002092332    0.00033765815
     11660   855.06667      0.0020787218   0.00033498673
     11680   856.53333      0.002065383    0.00033238271
     11700   858            0.0020523427   0.00032966154
     11720   859.46667      0.002039649    0.00032728901
     11740   860.93333      0.0020273281   0.00032488693
     11760   862.4          0.0020153344   0.00032273371
     11780   863.86667      0.0020035643   0.00032056357
     11800   865.33333      0.0019919266   0.00031848571
     11820   866.8          0.0019804109   0.00031632336
     11840   868.26667      0.0019691047   0.00031433261
     11860   869.73333      0.0019581159   0.00031218584
     11880   871.2          0.0019474677   0.00031030967
     11900   872.66667      0.0019370718   0.00030856209
     11920   874.13333      0.0019268042   0.00030650288
     11940   875.6          0.001916612    0.00030451368
     11960   877.06667      0.001906571    0.00030262179
     11980   878.53333      0.0018968247   0.00030074503
     12000   880            0.0018874544   0.00029913447
     12020   881.46667      0.0018784101   0.00029662509
     12040   882.93333      0.0018695636   0.00029506193
     12060   884.4          0.0018608105   0.00029363363
     12080   885.86667      0.001852149    0.00029229428
     12100   887.33333      0.0018436786   0.00029040392
     12120   888.8          0.0018355147   0.0002889122 
     12140   890.26667      0.0018276963   0.00028756044
     12160   891.73333      0.0018201534   0.00028611641
     12180   893.2          0.0018127586   0.00028506409
     12200   894.66667      0.0018054235   0.00028369752
     12220   896.13333      0.0017981791   0.00028233766
     12240   897.6          0.0017911612   0.00028097582
     12260   899.06667      0.0017845195   0.00027980822
     12280   900.53333      0.0017783241   0.00027870301
     12300   902            0.0017725354   0.00027781454
     12320   903.46667      0.0017670369   0.00027696749
     12340   904.93333      0.0017617043   0.00027595045
     12360   906.4          0.0017564671   0.00027515603
     12380   907.86667      0.0017513279   0.00027413986
     12400   909.33333      0.0017463348   0.00027314551
     12420   910.8          0.0017415469   0.00027227089
     12440   912.26667      0.0017369877   0.00027171946
     12460   913.73333      0.0017326216   0.00027080137
     12480   915.2          0.0017283855   0.00026998827
     12500   916.66667      0.0017242416   0.00026914816
     12520   918.13333      0.0017202155   0.00026829837
     12540   919.6          0.0017163963   0.0002675861 
     12560   921.06667      0.0017128886   0.0002667723 
     12580   922.53333      0.0017097574   0.00026618033
     12600   924            0.0017070052   0.00026572949
     12620   925.46667      0.001704592    0.00026525528
     12640   926.93333      0.0017024626   0.00026488867
     12660   928.4          0.0017005631   0.00026457158
     12680   929.86667      0.0016988589   0.00026436994
     12700   931.33333      0.0016973449   0.00026395244
     12720   932.8          0.0016960393   0.00026365984
     12740   934.26667      0.001694974    0.00026345062
     12760   935.73333      0.0016941761   0.00026336299
     12780   937.2          0.0016936435   0.00026332596
     12800   938.66667      0.0016933432   0.00026355164
     12820   940.13333      0.0016932433   0.00026335658
     12840   941.6          0.0016933599   0.00026314631
     12860   943.06667      0.0016937719   0.00026307474
     12880   944.53333      0.0016945847   0.00026311764
     12900   946            0.0016958656   0.00026323893
     12920   947.46667      0.0016975891   0.00026371393
     12940   948.93333      0.0016996328   0.00026418742
     12960   950.4          0.0017018372   0.00026445541
     12980   951.86667      0.0017040842   0.00026465988
     13000   953.33333      0.0017063409   0.00026492421
     13020   954.8          0.0017086492   0.00026464097
     13040   956.26667      0.0017110691   0.00026488236
     13060   957.73333      0.0017136221   0.00026530928
     13080   959.2          0.0017162692   0.00026574635
     13100   960.66667      0.0017189233   0.00026627091
     13120   962.13333      0.0017214529   0.00026666003
     13140   963.6          0.0017237135   0.00026695996
     13160   965.06667      0.0017257988   0.00026740735
     13180   966.53333      0.0017280923   0.00026770846
     13200   968            0.0017306821   0.00026792517
     13220   969.46667      0.001733427    0.0002682912 
     13240   970.93333      0.0017361875   0.00026865962
     13260   972.4          0.0017389577   0.00026913815
     13280   973.86667      0.0017418392   0.00026965139
     13300   975.33333      0.0017449174   0.00027003403
     13320   976.8          0.0017482511   0.00027052604
     13340   978.26667      0.0017519131   0.00027096916
     13360   979.73333      0.0017559465   0.00027166191
     13380   981.2          0.0017603323   0.00027232385
     13400   982.66667      0.0017649966   0.00027307086
     13420   984.13333      0.0017698534   0.0002740716 
     13440   985.6          0.0017748429   0.00027494847
     13460   987.06667      0.0017799508   0.00027583018
     13480   988.53333      0.0017851981   0.00027656797
     13500   990            0.0017906103   0.00027755757
     13520   991.46667      0.0017961935   0.00027849267
     13540   992.93333      0.0018019389   0.00027961065
     13560   994.4          0.00180785     0.00028068929
     13580   995.86667      0.0018139396   0.00028206853
     13600   997.33333      0.0018202007   0.00028306832
     13620   998.8          0.0018266024   0.00028432328
     13640   1000.2667      0.0018331086   0.00028550316
     13660   1001.7333      0.0018396943   0.00028681142
     13680   1003.2         0.0018463527   0.00028811296
     13700   1004.6667      0.0018530987   0.00028937134
     13720   1006.1333      0.0018599608   0.00029106192
     13740   1007.6         0.0018669558   0.00029220863
     13760   1009.0667      0.0018740779   0.00029330695
     13780   1010.5333      0.0018812937   0.00029470731
     13800   1012           0.0018885468   0.00029599724
     13820   1013.4667      0.0018957806   0.00029743566
     13840   1014.9333      0.0019029642   0.00029905881
     13860   1016.4         0.0019100879   0.00030020112
     13880   1017.8667      0.0019171419   0.00030148315
     13900   1019.3333      0.0019241335   0.00030285319
     13920   1020.8         0.001931114    0.00030393987
     13940   1022.2667      0.0019381135   0.00030531874
     13960   1023.7333      0.0019450764   0.00030669047
     13980   1025.2         0.0019519046   0.00030804687
     14000   1026.6667      0.0019585283   0.00030920751
     14020   1028.1333      0.0019649888   0.00031411   
     14040   1029.6         0.0019714179   0.00031522977
     14060   1031.0667      0.0019779039   0.00031629404
     14080   1032.5333      0.0019844683   0.00031740268
     14100   1034           0.0019911179   0.00031866045
     14120   1035.4667      0.0019978373   0.00031979417
     14140   1036.9333      0.0020046377   0.0003211711 
     14160   1038.4         0.0020115648   0.00032266806
     14180   1039.8667      0.0020186465   0.00032405222
     14200   1041.3333      0.0020258824   0.00032544294
     14220   1042.8         0.002033288    0.00032696753
     14240   1044.2667      0.0020409151   0.00032846945
     14260   1045.7333      0.0020487564   0.00032995486
     14280   1047.2         0.0020566491   0.00033152023
     14300   1048.6667      0.0020643409   0.0003331159 
     14320   1050.1333      0.0020716156   0.0003346425 
     14340   1051.6         0.002078374    0.00033608968
     14360   1053.0667      0.0020847978   0.00033747664
     14380   1054.5333      0.0020910199   0.00033898693
     14400   1056           0.0020968825   0.00034022896
     14420   1057.4667      0.0021023106   0.0003414625 
     14440   1058.9333      0.0021077573   0.00034261384
     14460   1060.4         0.002113474    0.00034387098
     14480   1061.8667      0.0021194904   0.0003452527 
     14500   1063.3333      0.0021257498   0.00034672003
     14520   1064.8         0.0021319685   0.00034846969
     14540   1066.2667      0.002138183    0.00034974744
     14560   1067.7333      0.0021445922   0.00035112509
     14580   1069.2         0.0021511027   0.00035257217
     14600   1070.6667      0.0021575608   0.000354188  
     14620   1072.1333      0.0021638684   0.00035582363
     14640   1073.6         0.0021699962   0.00035743302
     14660   1075.0667      0.0021760546   0.00035903749
     14680   1076.5333      0.0021822281   0.00036067237
     14700   1078           0.0021885555   0.00036274956
     14720   1079.4667      0.002194934    0.00036437903
     14740   1080.9333      0.0022013169   0.000366102  
     14760   1082.4         0.0022077654   0.00036776543
     14780   1083.8667      0.0022143868   0.00036933421
     14800   1085.3333      0.0022212189   0.00037138239
     14820   1086.8         0.0022282163   0.00037332009
     14840   1088.2667      0.0022353151   0.00037504449
     14860   1089.7333      0.0022424531   0.00037683286
     14880   1091.2         0.0022495573   0.00037903951
     14900   1092.6667      0.0022565543   0.00038088364
     14920   1094.1333      0.0022633982   0.00038271304
     14940   1095.6         0.0022701066   0.0003845773 
     14960   1097.0667      0.0022767936   0.00038651727
     14980   1098.5333      0.0022835784   0.00038907192
     15000   1100           0.0022904483   0.00039095663
     15020   1101.4667      0.0022972905   0.00039564017
     15040   1102.9333      0.0023039995   0.00039756112
     15060   1104.4         0.002310502    0.0003994926 
     15080   1105.8667      0.0023167096   0.0004010905 
     15100   1107.3333      0.0023223611   0.00040289768
     15120   1108.8         0.0023267139   0.00040435648
     15140   1110.2667      0.0023289591   0.00040550817
     15160   1111.7333      0.0023298314   0.00040609925
     15180   1113.2         0.0023300588   0.00040702296
     15200   1114.6667      0.0023301156   0.00040758364
     15220   1116.1333      0.0023306298   0.00040871224
     15240   1117.6         0.0023319081   0.00040957479
     15260   1119.0667      0.0023334248   0.00041082674
     15280   1120.5333      0.0023340493   0.00041157466
     15300   1122           0.0023343147   0.00041278439
     15320   1123.4667      0.0023356023   0.00041347955
     15340   1124.9333      0.002336575    0.0004146614 
     15360   1126.4         0.0023374      0.00041548516
     15380   1127.8667      0.002338449    0.00041686673
     15400   1129.3333      0.002339604    0.00041793172
     15420   1130.8         0.002340705    0.0004194187 
     15440   1132.2667      0.0023420945   0.0004204687 
     15460   1133.7333      0.0023435368   0.00042192641
     15480   1135.2         0.0023441479   0.00042272363
     15500   1136.6667      0.0023441901   0.00042387271
     15520   1138.1333      0.002344783    0.00042464683
     15540   1139.6         0.0023456866   0.00042606117
     15560   1141.0667      0.0023467207   0.00042710671
     15580   1142.5333      0.002347688    0.00042862179
     15600   1144           0.0023484041   0.00042975208
     15620   1145.4667      0.0023488902   0.00043123651
     15640   1146.9333      0.0023484612   0.00043229163
     15660   1148.4         0.00234585     0.00043316923
     15680   1149.8667      0.0023441768   0.00043356647
     15700   1151.3333      0.0023436592   0.00043481342
     15720   1152.8         0.0023433723   0.00043623471
     15740   1154.2667      0.00234345     0.00043775293
     15760   1155.7333      0.0023436334   0.00043930597
     15780   1157.2         0.0023441879   0.00044109556
     15800   1158.6667      0.002344988    0.00044234467
     15820   1160.1333      0.0023458334   0.00044396136
     15840   1161.6         0.0023463868   0.00044549778
     15860   1163.0667      0.0023470196   0.00044707212
     15880   1164.5333      0.0023480678   0.00044874185
     15900   1166           0.002348912    0.00045033947
     15920   1167.4667      0.0023494631   0.00045194005
     15940   1168.9333      0.0023500243   0.0004530979 
     15960   1170.4         0.0023507212   0.00045482922
     15980   1171.8667      0.0023515248   0.00045693992
     16000   1173.3333      0.0023522692   0.00045857525
     16020   1174.8         0.0023526277   0.00046214048
     16040   1176.2667      0.0023520481   0.00046367547
     16060   1177.7333      0.002345825    0.00046390226
     16080   1179.2         0.0023329335   0.00046210377
     16100   1180.6667      0.0023212952   0.00046130087
     16120   1182.1333      0.0023145667   0.00046184852
     16140   1183.6         0.0023053071   0.00046172855
     16160   1185.0667      0.0022950152   0.00046149751
     16180   1186.5333      0.0022840234   0.00046093529
     16200   1188           0.0022743042   0.00046078009
     16220   1189.4667      0.0022655139   0.00046018946
     16240   1190.9333      0.0022580747   0.00046030785
     16260   1192.4         0.0022517054   0.00046081505
     16280   1193.8667      0.0022458508   0.00046149503
     16300   1195.3333      0.0022406294   0.00046235947
     16320   1196.8         0.0022360128   0.00046341991
     16340   1198.2667      0.0022318077   0.00046454721
     16360   1199.7333      0.0022277433   0.00046502597
     16380   1201.2         0.0022238693   0.00046598979
     16400   1202.6667      0.0022206423   0.00046713814
     16420   1204.1333      0.0022176711   0.00046805924
     16440   1205.6         0.0022146279   0.00046849456
     16460   1207.0667      0.0022118168   0.00046938557
     16480   1208.5333      0.0022093697   0.0004706807 
     16500   1210           0.0022072515   0.0004715389 
     16520   1211.4667      0.002205632    0.00047327779
     16540   1212.9333      0.0022045495   0.00047514695
     16560   1214.4         0.0022037606   0.00047714488
     16580   1215.8667      0.002203209    0.00047944239
     16600   1217.3333      0.0022028786   0.00048184235
     16620   1218.8         0.002202621    0.00048434915
     16640   1220.2667      0.0022023177   0.00048601132
     16660   1221.7333      0.0022018613   0.00048838597
     16680   1223.2         0.002201195    0.00049128037
     16700   1224.6667      0.0022004416   0.00049384087
     16720   1226.1333      0.002199825    0.00049651542
     16740   1227.6         0.0021994723   0.00049930494
     16760   1229.0667      0.0021993795   0.00050167366
     16780   1230.5333      0.0021994324   0.00050421625
     16800   1232           0.0021994495   0.00050733519
     16820   1233.4667      0.0021993332   0.00050975797
     16840   1234.9333      0.0021990072   0.00051208894
     16860   1236.4         0.0021983601   0.00051524153
     16880   1237.8667      0.0021973654   0.00051815602
     16900   1239.3333      0.0021964134   0.00052061239
     16920   1240.8         0.0021958426   0.00052403301
     16940   1242.2667      0.0021955092   0.0005268018 
     16960   1243.7333      0.0021953014   0.00052963115
     16980   1245.2         0.0021946665   0.00053397513
     17000   1246.6667      0.0021930229   0.00053561015
     17020   1248.1333      0.0021910226   0.00053922399
     17040   1249.6         0.0021893852   0.00054266745
     17060   1251.0667      0.0021879869   0.00054512766
     17080   1252.5333      0.0021865832   0.00054760076
     17100   1254           0.0021851391   0.0005510093 
     17120   1255.4667      0.0021833451   0.00055356024
     17140   1256.9333      0.0021809296   0.00055520033
     17160   1258.4         0.0021785704   0.00055517836
     17180   1259.8667      0.0021765591   0.00055511602
     17200   1261.3333      0.0021748604   0.00055513354
     17220   1262.8         0.0021733329   0.00055554776
     17240   1264.2667      0.0021717945   0.00055611184
     17260   1265.7333      0.0021704473   0.00055603527
     17280   1267.2         0.002169586    0.00055656514
     17300   1268.6667      0.0021691752   0.00055697437
     17320   1270.1333      0.0021691821   0.0005560064 
     17340   1271.6         0.0021693086   0.00055525285
     17360   1273.0667      0.0021623597   0.00055206593
     17380   1274.5333      0.0021378772   0.00054293257
     17400   1276           0.0021179381   0.00053922935
     17420   1277.4667      0.0020879568   0.0005292574 
     17440   1278.9333      0.0020649824   0.00052435657
     17460   1280.4         0.0020350477   0.00051772837
     17480   1281.8667      0.002009222    0.00051207235
     17500   1283.3333      0.0019944512   0.00050870002
     17520   1284.8         0.0019846606   0.00050565562
     17540   1286.2667      0.0019772204   0.0005037252 
     17560   1287.7333      0.001970689    0.00050242423
     17580   1289.2         0.0019654362   0.00050086624
     17600   1290.6667      0.0019609051   0.00049943856
     17620   1292.1333      0.0019570011   0.00049740908
     17640   1293.6         0.0019526242   0.00049496376
     17660   1295.0667      0.0019469033   0.00049093331
     17680   1296.5333      0.0019402104   0.00048679142
     17700   1298           0.0019337874   0.0004834662 
     17720   1299.4667      0.0019295417   0.00048191462
     17740   1300.9333      0.0019278824   0.00048187259
     17760   1302.4         0.0019266829   0.0004824925 
     17780   1303.8667      0.0019245993   0.00048311336
     17800   1305.3333      0.0019216974   0.0004835585 
     17820   1306.8         0.0019186106   0.00048375837
     17840   1308.2667      0.0019157361   0.00048409041
     17860   1309.7333      0.0019127304   0.00048377791
     17880   1311.2         0.0019096535   0.00048311109
     17900   1312.6667      0.0019053795   0.00048255058
     17920   1314.1333      0.0018870536   0.00047882396
     17940   1315.6         0.0018757419   0.00047657992
     17960   1317.0667      0.0018676001   0.00047371743
     17980   1318.5333      0.001862266    0.00047323451
     18000   1320           0.0018580422   0.00047160101
     18020   1321.4667      0.0018548943   0.00047294764
     18040   1322.9333      0.0018523281   0.00047170295
     18060   1324.4         0.0018497301   0.00047119172
     18080   1325.8667      0.0018474866   0.00047098711
     18100   1327.3333      0.0018455661   0.00047087437
     18120   1328.8         0.0018438618   0.00047107693
     18140   1330.2667      0.0018422784   0.00047089868
     18160   1331.7333      0.0018407513   0.00046991   
     18180   1333.2         0.001839241    0.00046904328
     18200   1334.6667      0.0018377288   0.00046871115
     18220   1336.1333      0.0018362262   0.0004685898 
     18240   1337.6         0.0018347002   0.00046885079
     18260   1339.0667      0.0018331143   0.00046942921
     18280   1340.5333      0.0018314116   0.00046958921
     18300   1342           0.0018295366   0.00046976819
     18320   1343.4667      0.001827523    0.00046952953
     18340   1344.9333      0.0018254282   0.00046898447
     18360   1346.4         0.0018231933   0.00046840931
     18380   1347.8667      0.001820821    0.00046774514
     18400   1349.3333      0.0018184648   0.00046627108
     18420   1350.8         0.0018161975   0.00046536735
     18440   1352.2667      0.001814059    0.00046531219
     18460   1353.7333      0.0018121076   0.00046360405
     18480   1355.2         0.0018103707   0.00046220236
     18500   1356.6667      0.0018088342   0.00046165177
     18520   1358.1333      0.0018074292   0.00046081849
     18540   1359.6         0.001806004    0.00045962166
     18560   1361.0667      0.0018044365   0.00045907667
     18580   1362.5333      0.0018029139   0.00045876754
     18600   1364           0.0018016144   0.00045867397
     18620   1365.4667      0.0018004002   0.00045863307
     18640   1366.9333      0.0017992879   0.00045868013
     18660   1368.4         0.00179839     0.00045863359
     18680   1369.8667      0.0017977121   0.00045901563
     18700   1371.3333      0.0017971921   0.00045891611
     18720   1372.8         0.0017967838   0.00045814527
     18740   1374.2667      0.001796447    0.00045784208
     18760   1375.7333      0.001796153    0.00045683401
     18780   1377.2         0.0017959125   0.00045600809
     18800   1378.6667      0.0017957388   0.00045632614
     18820   1380.1333      0.0017956196   0.00045558151
     18840   1381.6         0.0017955223   0.00045542136
     18860   1383.0667      0.0017954123   0.0004555473 
     18880   1384.5333      0.0017952784   0.00045579098
     18900   1386           0.001795156    0.00045665283
     18920   1387.4667      0.0017950975   0.00045695277
     18940   1388.9333      0.0017951064   0.00045694824
     18960   1390.4         0.0017951341   0.0004572567 
     18980   1391.8667      0.0017951325   0.00045765272
     19000   1393.3333      0.0017950916   0.0004575665 
     19020   1394.8         0.0017950248   0.00045860674
     19040   1396.2667      0.0017949378   0.00045888684
     19060   1397.7333      0.001794837    0.00045922334
     19080   1399.2         0.0017947423   0.00045862062
     19100   1400.6667      0.0017946769   0.00045880548
     19120   1402.1333      0.001794667    0.00045881481
     19140   1403.6         0.0017941718   0.00045858693
     19160   1405.0667      0.0017734587   0.00045237499
     19180   1406.5333      0.0017600299   0.00044828027
     19200   1408           0.0017468874   0.00044485119
     19220   1409.4667      0.0017426965   0.00044393313
     19240   1410.9333      0.00173897     0.00044263768
     19260   1412.4         0.001736539    0.00044139554
     19280   1413.8667      0.0017345312   0.00044101352
     19300   1415.3333      0.0017325511   0.00044036782
     19320   1416.8         0.0017310087   0.00043895405
     19340   1418.2667      0.0017291752   0.0004386333 
     19360   1419.7333      0.0017274935   0.00043813811
     19380   1421.2         0.0017256731   0.00043758978
     19400   1422.6667      0.0017238057   0.00043727655
     19420   1424.1333      0.0017222082   0.00043665755
     19440   1425.6         0.0017208603   0.00043599716
     19460   1427.0667      0.0017196373   0.00043564451
     19480   1428.5333      0.0017184831   0.00043463139
     19500   1430           0.0017174651   0.00043422902
     19520   1431.4667      0.0017166046   0.00043341354
     19540   1432.9333      0.0017158618   0.00043304659
     19560   1434.4         0.0017151931   0.00043263476
     19580   1435.8667      0.0017145536   0.00043249754
     19600   1437.3333      0.0017139146   0.00043219147
     19620   1438.8         0.0017132767   0.00043208899
     19640   1440.2667      0.0017126729   0.00043198562
     19660   1441.7333      0.0017121396   0.00043205981
     19680   1443.2         0.0017116857   0.00043178347
     19700   1444.6667      0.0017112947   0.00043171604
     19720   1446.1333      0.0017109517   0.00043185055
     19740   1447.6         0.0017106544   0.00043229316
     19760   1449.0667      0.0017104052   0.00043260564
     19780   1450.5333      0.0017102058   0.00043382701
     19800   1452           0.0017100578   0.00043387219
     19820   1453.4667      0.0017099616   0.00043414163
     19840   1454.9333      0.0017099157   0.00043432436
     19860   1456.4         0.0017099168   0.00043423904
     19880   1457.8667      0.0017099555   0.00043391905
     19900   1459.3333      0.0017100142   0.00043412773
     19920   1460.8         0.0017100697   0.00043443378
     19940   1462.2667      0.0017100967   0.00043479143
     19960   1463.7333      0.0017100721   0.00043515486
     19980   1465.2         0.0017099783   0.00043526697
     20000   1466.6667      0.0017098111   0.0004358465 
     20020   1468.1333      0.0017095946   0.00043577531
     20040   1469.6         0.0017093747   0.00043552267
     20060   1471.0667      0.0017091806   0.00043570479
     20080   1472.5333      0.0017090067   0.00043512745
     20100   1474           0.0017088423   0.00043443362
     20120   1475.4667      0.0017086955   0.00043383415
     20140   1476.9333      0.001708581    0.00043356949
     20160   1478.4         0.0017085051   0.00043332163
     20180   1479.8667      0.0017084605   0.00043307003
     20200   1481.3333      0.0017084262   0.00043305072
     20220   1482.8         0.0017083783   0.00043307797
     20240   1484.2667      0.0017083203   0.00043275889
     20260   1485.7333      0.001708276    0.00043232792
     20280   1487.2         0.0017082613   0.00043268106
     20300   1488.6667      0.0017082769   0.00043230163
     20320   1490.1333      0.0017083198   0.00043179487
     20340   1491.6         0.001708392    0.00043169381
     20360   1493.0667      0.0017084894   0.000431497  
     20380   1494.5333      0.0017085952   0.00043144721
     20400   1496           0.0017086918   0.00043101194
     20420   1497.4667      0.0017087712   0.00043061298
     20440   1498.9333      0.0017088356   0.0004304786 
     20460   1500.4         0.0017088955   0.00043034394
     20480   1501.8667      0.0017089641   0.00043060268
     20500   1503.3333      0.0017090531   0.00043059145
     20520   1504.8         0.0017091676   0.00043062226
     20540   1506.2667      0.0017093049   0.00043062551
     20560   1507.7333      0.0017094539   0.0004308596 
     20580   1509.2         0.0017095962   0.0004301464 
     20600   1510.6667      0.0017097107   0.00043002092
     20620   1512.1333      0.0017097813   0.00043000414
     20640   1513.6         0.0017098013   0.00043001853
     20660   1515.0667      0.0017097766   0.00043000912
     20680   1516.5333      0.0017097199   0.00043039456
     20700   1518           0.0017096457   0.00043050699
     20720   1519.4667      0.0017095653   0.00043128422
     20740   1520.9333      0.0017094784   0.00043109876
     20760   1522.4         0.0017093556   0.0004308737 
     20780   1523.8667      0.0017091288   0.00043081086
     20800   1525.3333      0.0017087039   0.00043106157
     20820   1526.8         0.0017079996   0.0004312884 
     20840   1528.2667      0.0017069513   0.00043055068
     20860   1529.7333      0.0017055177   0.0004302072 
     20880   1531.2         0.0017038025   0.00042979424
     20900   1532.6667      0.001702135    0.00042989172
     20920   1534.1333      0.0017008491   0.00042965925
     20940   1535.6         0.0016999251   0.00042942152
     20960   1537.0667      0.0016993449   0.00042902249
     20980   1538.5333      0.0016990664   0.00042891961
     21000   1540           0.0016989828   0.00042854079
     21020   1541.4667      0.0016990407   0.00042876641
     21040   1542.9333      0.0016992106   0.00042893514
     21060   1544.4         0.0016994687   0.00042908546
     21080   1545.8667      0.0016997948   0.00042903   
     21100   1547.3333      0.0017001614   0.00042891008
     21120   1548.8         0.0017005408   0.0004285755 
     21140   1550.2667      0.001700912    0.00042859867
     21160   1551.7333      0.0017012611   0.00042906311
     21180   1553.2         0.0017015839   0.00042904977
     21200   1554.6667      0.0017018896   0.00042912996
     21220   1556.1333      0.0017021938   0.00042894656
     21240   1557.6         0.001702511    0.00042897213
     21260   1559.0667      0.0017028495   0.00042933864
     21280   1560.5333      0.0017032085   0.00042940507
     21300   1562           0.0017035809   0.00042939533
     21320   1563.4667      0.0017039564   0.00042949514
     21340   1564.9333      0.0017043235   0.00042933219
     21360   1566.4         0.001704672    0.00042975334
     21380   1567.8667      0.0017049947   0.00042995321
     21400   1569.3333      0.0017052854   0.00042967644
     21420   1570.8         0.0017055388   0.0004291742 
     21440   1572.2667      0.0017057505   0.00042898122
     21460   1573.7333      0.0017059178   0.00042880571
     21480   1575.2         0.0017060374   0.00042878747
     21500   1576.6667      0.0017061042   0.00042877654
     21520   1578.1333      0.0017061114   0.00042908408
     21540   1579.6         0.0017060544   0.00042908482
     21560   1581.0667      0.0017059376   0.00042906994
     21580   1582.5333      0.0017057834   0.00042940465
     21600   1584           0.0017056334   0.0004295035 
     21620   1585.4667      0.0017055069   0.00042991275
     21640   1586.9333      0.0017053625   0.00042922916
     21660   1588.4         0.0017051423   0.00042898943
     21680   1589.8667      0.0017048513   0.00042826821
     21700   1591.3333      0.0017045395   0.00042812483
     21720   1592.8         0.0017042343   0.00042818455
     21740   1594.2667      0.0017039308   0.00042810512
     21760   1595.7333      0.0017036147   0.00042800942
     21780   1597.2         0.0017032688   0.00042793203
     21800   1598.6667      0.0017028785   0.00042784171
     21820   1600.1333      0.0017024397   0.00042774111
     21840   1601.6         0.0017019535   0.00042776863
     21860   1603.0667      0.0017014132   0.00042805671
     21880   1604.5333      0.0017008031   0.00042794387
     21900   1606           0.0017001058   0.00042815777
     21920   1607.4667      0.0016993076   0.00042666667
     21940   1608.9333      0.0016983975   0.00042627215
     21960   1610.4         0.0016973695   0.00042601649
     21980   1611.8667      0.0016962242   0.00042567054
     22000   1613.3333      0.0016949658   0.00042539444
     22020   1614.8         0.0016935953   0.00042452576
     22040   1616.2667      0.0016921024   0.00042417672
     22060   1617.7333      0.001690469    0.00042399154
     22080   1619.2         0.0016886784   0.00042354539
     22100   1620.6667      0.0016867128   0.00042336088
     22120   1622.1333      0.0016845355   0.00042220996
     22140   1623.6         0.0016821006   0.0004214665 
     22160   1625.0667      0.0016793881   0.00042078229
     22180   1626.5333      0.0016764123   0.00042011338
     22200   1628           0.0016731894   0.00041945164
     22220   1629.4667      0.0016697398   0.00041831461
     22240   1630.9333      0.0016661069   0.00041739446
     22260   1632.4         0.0016623274   0.00041647028
     22280   1633.8667      0.001658408    0.00041552145
     22300   1635.3333      0.0016543383   0.00041465138
     22320   1636.8         0.0016500908   0.00041368396
     22340   1638.2667      0.0016455583   0.0004126347 
     22360   1639.7333      0.001640525    0.00041145195
     22380   1641.2         0.0016348086   0.00041047612
     22400   1642.6667      0.0016285585   0.0004091991 
     22420   1644.1333      0.0016221826   0.00040787984
     22440   1645.6         0.0016158066   0.00040630811
     22460   1647.0667      0.0016091592   0.00040467988
     22480   1648.5333      0.0016016562   0.00040296992
     22500   1650           0.0015926055   0.00040112522
     22520   1651.4667      0.0015825279   0.00039910031
     22540   1652.9333      0.0015724195   0.00039695423
     22560   1654.4         0.0015611754   0.0003943651 
     22580   1655.8667      0.0015479828   0.00039129841
     22600   1657.3333      0.0015342766   0.00038791282
     22620   1658.8         0.0015206615   0.00038436333
     22640   1660.2667      0.0015073659   0.00038144804
     22660   1661.7333      0.0014946959   0.00037779592
     22680   1663.2         0.001482322    0.00037451362
     22700   1664.6667      0.001469893    0.00037127864
     22720   1666.1333      0.001457814    0.000367876  
     22740   1667.6         0.0014457977   0.00036448264
     22760   1669.0667      0.0014320737   0.00036080108
     22780   1670.5333      0.0014179093   0.00035728876
     22800   1672           0.0014060519   0.00035319876
     22820   1673.4667      0.0013961201   0.00034986919
     22840   1674.9333      0.0013858737   0.00034633713
     22860   1676.4         0.0013751732   0.00034313884
     22880   1677.8667      0.001364649    0.00034058699
     22900   1679.3333      0.0013547914   0.00033786437
     22920   1680.8         0.0013458304   0.00033529253
     22940   1682.2667      0.0013376057   0.00033253295
     22960   1683.7333      0.001329727    0.00033036713
     22980   1685.2         0.0013219651   0.00032847422
     23000   1686.6667      0.0013142498   0.0003265711 
     23020   1688.1333      0.0013064929   0.00031577407
     23040   1689.6         0.0012987212   0.00031456013
     23060   1691.0667      0.0012910359   0.00031324659
     23080   1692.5333      0.0012834844   0.00031191413
     23100   1694           0.0012759754   0.00031041368
     23120   1695.4667      0.0012683704   0.0003089556 
     23140   1696.9333      0.0012606507   0.00030758291
     23160   1698.4         0.0012528814   0.00030653408
     23180   1699.8667      0.0012451337   0.00030513622
     23200   1701.3333      0.0012374437   0.00030371003
     23220   1702.8         0.0012297591   0.00030215603
     23240   1704.2667      0.0012219602   0.00030059548
     23260   1705.7333      0.0012139352   0.00029897783
     23280   1707.2         0.0012056385   0.00029732525
     23300   1708.6667      0.0011970902   0.0002953895 
     23320   1710.1333      0.0011883601   0.00029353967
     23340   1711.6         0.0011795247   0.00029150933
     23360   1713.0667      0.0011706191   0.00028940324
     23380   1714.5333      0.0011616605   0.00028741694
     23400   1716           0.0011526894   0.00028535108
     23420   1717.4667      0.0011437356   0.00028327611
     23440   1718.9333      0.0011347856   0.00028167854
     23460   1720.4         0.0011258111   0.00027958348
     23480   1721.8667      0.001116818    0.00027712562
     23500   1723.3333      0.001107853    0.00027515982
     23520   1724.8         0.0010989489   0.00027310467
     23540   1726.2667      0.0010900955   0.0002710547 
     23560   1727.7333      0.0010812674   0.00026924362
     23580   1729.2         0.0010724429   0.00026716524
     23600   1730.6667      0.0010635939   0.0002642082 
     23620   1732.1333      0.0010546897   0.00026192876
     23640   1733.6         0.001045726    0.00025953347
     23660   1735.0667      0.001036757    0.000257167  
     23680   1736.5333      0.0010278839   0.00025475917
     23700   1738           0.0010191849   0.00025232342
     23720   1739.4667      0.0010106616   0.00024986962
     23740   1740.9333      0.0010022561   0.00024762385
     23760   1742.4         0.00099389217  0.00024513653
     23780   1743.8667      0.00098550354  0.00024272822
     23800   1745.3333      0.00097704779  0.00024066513
     23820   1746.8         0.00096851204  0.00023824562
     23840   1748.2667      0.00095991372  0.0002359706 
     23860   1749.7333      0.00095129221  0.0002333229 
     23880   1751.2         0.00094268745  0.00023103841
     23900   1752.6667      0.00093411473  0.00022849221
     23920   1754.1333      0.00092555728  0.00022602341
     23940   1755.6         0.00091698063  0.0002237535 
     23960   1757.0667      0.00090834914  0.00022147853
     23980   1758.5333      0.00089963682  0.0002192031 
     24000   1760           0.00089082979  0.00021182867
     24020   1761.4667      0.00088192185  0.00020952398
     24040   1762.9333      0.00087291435  0.00020721628
     24060   1764.4         0.00086382058  0.00020527872
     24080   1765.8667      0.00085466919  0.00020288936
     24100   1767.3333      0.00084549871  0.00020057376
     24120   1768.8         0.00083634903  0.00019825372
     24140   1770.2667      0.00082725339  0.00019628473
     24160   1771.7333      0.00081823564  0.00019318694
     24180   1773.2         0.00080931087  0.00019035761
     24200   1774.6667      0.00080048793  0.00018781439
     24220   1776.1333      0.00079177166  0.00018499298
     24240   1777.6         0.00078316226  0.00018253824
     24260   1779.0667      0.0007746537   0.00018015789
     24280   1780.5333      0.00076623382  0.00017786669
     24300   1782           0.0007578876   0.00017567126
     24320   1783.4667      0.00074960438  0.000173637  
     24340   1784.9333      0.00074138182  0.00017163846
     24360   1786.4         0.00073322687  0.00016973103
     24380   1787.8667      0.00072515381  0.00016788287
     24400   1789.3333      0.00071718087  0.00016609332
     24420   1790.8         0.00070932775  0.00016434349
     24440   1792.2667      0.00070160882  0.00016278144
     24460   1793.7333      0.00069403022  0.00016083587
     24480   1795.2         0.0006865885   0.0001590857 
     24500   1796.6667      0.00067927162  0.00015696492
     24520   1798.1333      0.00067206115  0.00015534369
     24540   1799.6         0.0006649357   0.00015354431
     24560   1801.0667      0.00065787552  0.00015203448
     24580   1802.5333      0.00065086603  0.00015056264
     24600   1804           0.0006438996   0.00014915754
     24620   1805.4667      0.00063697429  0.00014786197
     24640   1806.9333      0.00063009179  0.0001464547 
     24660   1808.4         0.00062325579  0.00014506226
     24680   1809.8667      0.00061647049  0.00014351357
     24700   1811.3333      0.0006097385   0.00014213807
     24720   1812.8         0.00060305934  0.00014105564
     24740   1814.2667      0.0005964287   0.00013956054
     24760   1815.7333      0.00058983846  0.00013807307
     24780   1817.2         0.00058327855  0.00013647437
     24800   1818.6667      0.00057674014  0.00013467318
     24820   1820.1333      0.0005702184   0.00013318235
     24840   1821.6         0.00056371358  0.00013152109
     24860   1823.0667      0.00055722983  0.00013002139
     24880   1824.5333      0.00055077341  0.00012851355
     24900   1826           0.0005443514   0.00012719337
     24920   1827.4667      0.00053797109  0.00012578867
     24940   1828.9333      0.00053163966  0.00012427822
     24960   1830.4         0.00052536261  0.00012266409
     24980   1831.8667      0.00051914268  0.00012058094
     25000   1833.3333      0.00051297983  0.00011889844
     25020   1834.8         0.00050687175  0.00011538276
     25040   1836.2667      0.00050081518  0.00011342642
     25060   1837.7333      0.0004948077   0.000111844  
     25080   1839.2         0.00048884914  0.00011026531
     25100   1840.6667      0.00048294217  0.00010869535
     25120   1842.1333      0.00047709181  0.00010717048
     25140   1843.6         0.00047130423  0.0001056318 
     25160   1845.0667      0.00046558522  0.00010411037
     25180   1846.5333      0.00045993931  0.00010267411
     25200   1848           0.00045436957  0.00010117209
     25220   1849.4667      0.00044887789  9.9708786e-05
     25240   1850.9333      0.00044346486  9.8346932e-05
     25260   1852.4         0.0004381297   9.6924371e-05
     25280   1853.8667      0.00043287038  9.5685721e-05
     25300   1855.3333      0.00042768387  9.3749974e-05
     25320   1856.8         0.00042256629  9.2249911e-05
     25340   1858.2667      0.0004175134   9.0929861e-05
     25360   1859.7333      0.00041252138  8.9488001e-05
     25380   1861.2         0.00040758759  8.7843044e-05
     25400   1862.6667      0.00040271101  8.6512823e-05
     25420   1864.1333      0.00039789225  8.5208454e-05
     25440   1865.6         0.00039313306  8.3987742e-05
     25460   1867.0667      0.00038843588  8.2796644e-05
     25480   1868.5333      0.00038380289  8.1599028e-05
     25500   1870           0.0003792347   8.0515178e-05
     25520   1871.4667      0.00037472931  7.9507708e-05
     25540   1872.9333      0.00037028241  7.8345212e-05
     25560   1874.4         0.00036588916  7.734101e-05 
     25580   1875.8667      0.00036154645  7.5805531e-05
     25600   1877.3333      0.00035725426  7.4693432e-05
     25620   1878.8         0.00035301492  7.3936414e-05
     25640   1880.2667      0.00034883158  7.2838157e-05
     25660   1881.7333      0.00034470729  7.1350085e-05
     25680   1883.2         0.000340645    7.0073673e-05
     25700   1884.6667      0.00033664797  6.9024453e-05
     25720   1886.1333      0.00033271973  6.8011229e-05
     25740   1887.6         0.00032886381  6.7038668e-05
     25760   1889.0667      0.00032508366  6.6144824e-05
     25780   1890.5333      0.00032138253  6.5258225e-05
     25800   1892           0.0003177632   6.4296065e-05
     25820   1893.4667      0.00031422752  6.346928e-05 
     25840   1894.9333      0.00031077602  6.2624165e-05
     25860   1896.4         0.00030740782  6.1825114e-05
     25880   1897.8667      0.00030412072  6.061421e-05 
     25900   1899.3333      0.0003009115   5.9722957e-05
     25920   1900.8         0.00029777641  5.8994632e-05
     25940   1902.2667      0.00029471162  5.812262e-05 
     25960   1903.7333      0.00029171395  5.7428691e-05
     25980   1905.2         0.00028878133  5.6651285e-05
     26000   1906.6667      0.00028591318  5.5851899e-05
     26020   1908.1333      0.0002831103   5.2243056e-05
     26040   1909.6         0.00028037427  5.1552592e-05
     26060   1911.0667      0.00027770676  5.0954847e-05
     26080   1912.5333      0.00027510881  5.0377726e-05
     26100   1914           0.0002725808   4.9484076e-05
     26120   1915.4667      0.00027012244  4.8998273e-05
     26140   1916.9333      0.00026773283  4.8540355e-05
     26160   1918.4         0.00026541055  4.8098148e-05
     26180   1919.8667      0.00026315349  4.7077119e-05
     26200   1921.3333      0.00026095881  4.6538581e-05
     26220   1922.8         0.00025882345  4.6005586e-05
     26240   1924.2667      0.0002567451   4.5480475e-05
     26260   1925.7333      0.00025472284  4.5058128e-05
     26280   1927.2         0.00025275694  4.4555053e-05
     26300   1928.6667      0.00025084765  4.4088284e-05
     26320   1930.1333      0.00024899399  4.3639811e-05
     26340   1931.6         0.00024719305  4.3179187e-05
     26360   1933.0667      0.00024544064  4.2798146e-05
     26380   1934.5333      0.00024373252  4.2456585e-05
     26400   1936           0.00024206564  4.2141991e-05
     26420   1937.4667      0.0002404391   4.1840286e-05
     26440   1938.9333      0.0002388538   4.1571201e-05
     26460   1940.4         0.0002373115   4.1537182e-05
     26480   1941.8667      0.00023581405  4.1286515e-05
     26500   1943.3333      0.00023436286  4.0906094e-05
     26520   1944.8         0.00023295859  4.0153333e-05
     26540   1946.2667      0.0002316013   3.9780999e-05
     26560   1947.7333      0.00023029069  3.9393725e-05
     26580   1949.2         0.00022902649  3.9036332e-05
     26600   1950.6667      0.00022780897  3.8697299e-05
     26620   1952.1333      0.00022663899  3.8329135e-05
     26640   1953.6         0.00022551779  3.7670422e-05
     26660   1955.0667      0.00022444621  3.7422333e-05
     26680   1956.5333      0.00022342385  3.7212474e-05
     26700   1958           0.00022244849  3.7105374e-05
     26720   1959.4667      0.00022151612  3.6963641e-05
     26740   1960.9333      0.00022062139  3.6844529e-05
     26760   1962.4         0.0002197582   3.6613899e-05
     26780   1963.8667      0.00021892046  3.6511731e-05
     26800   1965.3333      0.0002181026   3.6405929e-05
     26820   1966.8         0.00021729999  3.6289547e-05
     26840   1968.2667      0.00021650934  3.6158424e-05
     26860   1969.7333      0.00021572872  3.6011007e-05
     26880   1971.2         0.00021495739  3.6115655e-05
     26900   1972.6667      0.00021419577  3.5485929e-05
     26920   1974.1333      0.00021344488  3.5212207e-05
     26940   1975.6         0.00021270594  3.4946421e-05
     26960   1977.0667      0.00021197996  3.4530543e-05
     26980   1978.5333      0.00021126743  3.4253243e-05
     27000   1980           0.00021056819  3.4025617e-05
     27020   1981.4667      0.00020988159  3.4023505e-05
     27040   1982.9333      0.00020920673  3.3435631e-05
     27060   1984.4         0.00020854285  3.3220897e-05
     27080   1985.8667      0.00020788978  3.3010808e-05
     27100   1987.3333      0.00020724823  3.2884059e-05
     27120   1988.8         0.00020661978  3.2679383e-05
     27140   1990.2667      0.00020600673  3.2479292e-05
     27160   1991.7333      0.00020541169  3.2149774e-05
     27180   1993.2         0.00020483709  3.1968061e-05
     27200   1994.6667      0.00020428429  3.1805471e-05
     27220   1996.1333      0.00020375315  3.1646781e-05
     27240   1997.6         0.00020324219  3.1498087e-05
     27260   1999.0667      0.0002027492   3.1361926e-05
     27280   2000.5333      0.00020227125  3.1324193e-05
     27300   2002           0.00020180461  3.1198971e-05
     27320   2003.4667      0.00020134465  3.1073327e-05
     27340   2004.9333      0.00020088572  3.0668628e-05
     27360   2006.4         0.00020042092  3.0392906e-05
     27380   2007.8667      0.00019994297  3.0189227e-05
     27400   2009.3333      0.0001994458   2.997527e-05 
     27420   2010.8         0.0001989257   2.9749837e-05
     27440   2012.2667      0.00019838198  2.9467708e-05
     27460   2013.7333      0.0001978168   2.9220261e-05
     27480   2015.2         0.00019723394  2.8993056e-05
     27500   2016.6667      0.00019663767  2.8733365e-05
     27520   2018.1333      0.00019603268  2.8473163e-05
     27540   2019.6         0.00019542574  2.8216878e-05
     27560   2021.0667      0.00019482646  2.7881e-05   
     27580   2022.5333      0.00019424646  2.7868582e-05
     27600   2024           0.00019369684  2.7666952e-05
     27620   2025.4667      0.00019318587  2.7268379e-05
     27640   2026.9333      0.00019271779  2.7117202e-05
     27660   2028.4         0.00019229361  2.6991905e-05
     27680   2029.8667      0.00019191233  2.6890424e-05
     27700   2031.3333      0.00019157167  2.6810938e-05
     27720   2032.8         0.00019126895  2.6751439e-05
     27740   2034.2667      0.0001910013   2.6711049e-05
     27760   2035.7333      0.0001907658   2.6689229e-05
     27780   2037.2         0.00019055982  2.6536476e-05
     27800   2038.6667      0.00019038124  2.6549668e-05
     27820   2040.1333      0.00019022861  2.6580331e-05
     27840   2041.6         0.0001901012   2.6628091e-05
     27860   2043.0667      0.00018999888  2.6691738e-05
     27880   2044.5333      0.00018992168  2.6770204e-05
     27900   2046           0.00018986882  2.6885745e-05
     27920   2047.4667      0.00018983758  2.6987533e-05
     27940   2048.9333      0.00018982216  2.6805095e-05
     27960   2050.4         0.00018981352  2.6883303e-05
     27980   2051.8667      0.00018980074  2.6966316e-05
     28000   2053.3333      0.00018977394  2.7393222e-05
     28020   2054.8         0.0001897276   2.8106207e-05
     28040   2056.2667      0.00018966207  2.8188698e-05
     28060   2057.7333      0.00018958167  2.8254013e-05
     28080   2059.2         0.00018949072  2.8500287e-05
     28100   2060.6667      0.00018939093  2.8559562e-05
     28120   2062.1333      0.00018928127  2.8181278e-05
     28140   2063.6         0.0001891593   2.8193807e-05
     28160   2065.0667      0.00018902254  2.8217588e-05
     28180   2066.5333      0.00018886967  2.8231848e-05
     28200   2068           0.00018870114  2.7988132e-05
     28220   2069.4667      0.00018851929  2.7986539e-05
     28240   2070.9333      0.00018832761  2.7980503e-05
     28260   2072.4         0.00018812955  2.7970726e-05
     28280   2073.8667      0.00018792768  2.7812248e-05
     28300   2075.3333      0.00018772351  2.7794237e-05
     28320   2076.8         0.00018751803  2.7769702e-05
     28340   2078.2667      0.00018731225  2.7805536e-05
     28360   2079.7333      0.00018710745  2.7764567e-05
     28380   2081.2         0.00018690504  2.7715187e-05
     28400   2082.6667      0.00018670614  2.7657892e-05
     28420   2084.1333      0.00018651066  2.7592792e-05
     28440   2085.6         0.00018631697  2.7519155e-05
     28460   2087.0667      0.00018612213  2.7435887e-05
     28480   2088.5333      0.00018592248  2.7330046e-05
     28500   2090           0.00018571462  2.7225012e-05
     28520   2091.4667      0.00018549607  2.7078816e-05
     28540   2092.9333      0.00018526598  2.695193e-05 
     28560   2094.4         0.00018502531  2.6816889e-05
     28580   2095.8667      0.00018477624  2.6676364e-05
     28600   2097.3333      0.0001845219   2.6491453e-05
     28620   2098.8         0.00018426539  2.6348437e-05
     28640   2100.2667      0.00018400909  2.6208415e-05
     28660   2101.7333      0.00018375456  2.6073342e-05
     28680   2103.2         0.00018350257  2.619837e-05 
     28700   2104.6667      0.00018325364  2.6364551e-05
     28720   2106.1333      0.00018300816  2.6257629e-05
     28740   2107.6         0.00018276635  2.5891996e-05
     28760   2109.0667      0.00018252856  2.5797922e-05
     28780   2110.5333      0.0001822949   2.571037e-05 
     28800   2112           0.00018206536  2.5627909e-05
     28820   2113.4667      0.00018184002  2.5549447e-05
     28840   2114.9333      0.00018161926  2.5217433e-05
     28860   2116.4         0.00018140372  2.5140357e-05
     28880   2117.8667      0.00018119431  2.5065755e-05
     28900   2119.3333      0.00018099225  2.5006824e-05
     28920   2120.8         0.00018079892  2.4939977e-05
     28940   2122.2667      0.0001806158   2.4879385e-05
     28960   2123.7333      0.00018044436  2.482676e-05 
     28980   2125.2         0.0001802859   2.4849298e-05
     29000   2126.6667      0.00018014161  2.4815614e-05
     29020   2128.1333      0.00018001258  2.5702223e-05
     29040   2129.6         0.0001798997   2.5672679e-05
     29060   2131.0667      0.00017980368  2.5654818e-05
     29080   2132.5333      0.00017972497  2.5648813e-05
     29100   2134           0.00017966364  2.5654488e-05
     29120   2135.4667      0.00017961917  2.5671356e-05
     29140   2136.9333      0.00017959027  2.5698678e-05
     29160   2138.4         0.00017957464  2.5735052e-05
     29180   2139.8667      0.00017956906  2.5779191e-05
     29200   2141.3333      0.00017956958  2.5829623e-05
     29220   2142.8         0.00017957225  2.5884806e-05
     29240   2144.2667      0.00017957418  2.5943692e-05
     29260   2145.7333      0.00017957441  2.6005322e-05
     29280   2147.2         0.00017957411  2.6068776e-05
     29300   2148.6667      0.00017957592  2.6194941e-05
     29320   2150.1333      0.00017958295  2.6259101e-05
     29340   2151.6         0.00017959808  2.6323427e-05
     29360   2153.0667      0.00017962366  2.6388162e-05
     29380   2154.5333      0.00017966141  2.6453409e-05
     29400   2156           0.00017971246  2.65189e-05  
     29420   2157.4667      0.00017977724  2.6603897e-05
     29440   2158.9333      0.0001798556   2.6666362e-05
     29460   2160.4         0.00017994699  2.6725508e-05
     29480   2161.8667      0.00018005076  2.6780606e-05
     29500   2163.3333      0.00018016633  2.6897666e-05
     29520   2164.8         0.00018029324  2.6944205e-05
     29540   2166.2667      0.0001804311   2.6987044e-05
     29560   2167.7333      0.00018057966  2.7027161e-05
     29580   2169.2         0.00018073867  2.7239665e-05
     29600   2170.6667      0.00018090783  2.7277639e-05
     29620   2172.1333      0.00018108668  2.7316181e-05
     29640   2173.6         0.00018127469  2.7356399e-05
     29660   2175.0667      0.00018147127  2.7362725e-05
     29680   2176.5333      0.0001816759   2.7409011e-05
     29700   2178           0.00018188812  2.7139867e-05
     29720   2179.4667      0.00018210757  2.7192193e-05
     29740   2180.9333      0.00018233409  2.7249008e-05
     29760   2182.4         0.00018256766  2.7310195e-05
     29780   2183.8667      0.0001828085   2.7375414e-05
     29800   2185.3333      0.00018305693  2.7444429e-05
     29820   2186.8         0.00018331337  2.7517012e-05
     29840   2188.2667      0.00018357828  2.7592764e-05
     29860   2189.7333      0.00018385207  2.7671284e-05
     29880   2191.2         0.00018413508  2.7752069e-05
     29900   2192.6667      0.00018442749  2.7834441e-05
     29920   2194.1333      0.0001847294   2.7917587e-05
     29940   2195.6         0.0001850407   2.8000634e-05
     29960   2197.0667      0.00018536119  2.8082863e-05
     29980   2198.5333      0.00018569054  2.8163205e-05
     30000   2200           0.00018602838  2.8240968e-05
Loop time of 59.5958 on 4 procs for 30000 steps with 3046 atoms

Performance: 3189488.187 tau/day, 503.391 timesteps/s, 1.533 Matom-step/s
97.0% CPU use with 4 MPI tasks x 1 OpenMP threads

MPI task timing breakdown:
Section |  min time  |  avg time  |  max time  |%varavg| %total
---------------------------------------------------------------
Pair    | 0.37268    | 5.0834     | 10.398     | 201.6 |  8.53
Neigh   | 0.038485   | 0.54799    | 1.0845     |  67.3 |  0.92
Comm    | 0.11716    | 0.12581    | 0.13563    |   1.9 |  0.21
Output  | 0.15102    | 0.67644    | 1.069      |  47.5 |  1.14
Modify  | 45.762     | 46.773     | 47.636     |  11.4 | 78.48
Other   |            | 6.389      |            |       | 10.72

Nlocal:          761.5 ave        1694 max         105 min
Histogram: 2 0 0 0 0 0 1 0 0 1
Nghost:          27.25 ave          47 max           7 min
Histogram: 2 0 0 0 0 0 0 0 0 2
Neighs:        6118.25 ave       14238 max         567 min
Histogram: 2 0 0 0 0 0 1 0 0 1
FullNghs:      12147.5 ave       28320 max        1117 min
Histogram: 2 0 0 0 0 0 1 0 0 1

Total # of neighbors = 48590
Ave neighs/atom = 15.952068
Neighbor list builds = 3013
Dangerous builds = 0
Total wall time: 0:00:59
