# electrodes with constrained total charges 
# for graphene-ionic liquid supercapacitor

boundary p p f # slab calculation
include settings.mod # styles, groups, computes and fixes
kspace_modify slab 3.0

fix conq bot electrode/conq -1.0 1.979 couple top 1.0 etypes on # conq doesn't take symm option

thermo 50
thermo_style custom step temp c_ctemp epair etotal c_qbot c_qtop f_conq[1] f_conq[2]
run 500
