LAMMPS (2 Sep 2026)
  using 1 OpenMP thread(s) per MPI task
# Test case / example for fix electron/stopping
# Perfect Si lattice with one primary knock-on atom.
#
# Also uses fix dt/reset, as one should when energies are high
# enough to require electronic stopping.

units metal
boundary p p p
timestep 0.0001

lattice fcc 5.431
Lattice spacing in x,y,z = 5.431 5.431 5.431

region rbox block -10 10 -10 10 -10 10
create_box 1 rbox
Created orthogonal box = (-54.31 -54.31 -54.31) to (54.31 54.31 54.31)
  1 by 1 by 1 MPI processor grid

mass 1 28.0855

create_atoms 1 box
Created 32000 atoms
  using lattice units in orthogonal box = (-54.31 -54.31 -54.31) to (54.31 54.31 54.31)
  create_atoms CPU = 0.004 seconds

velocity all create 300 42534 mom yes rot yes loop geom

group gPKA id 1
1 atoms in group gPKA
velocity gPKA set 1120 1620 389

pair_style sw
pair_coeff * * Si.sw Si
Reading sw potential file Si.sw with DATE: 2007-06-11

fix fdt all dt/reset 1 NULL 0.001 0.1 emax 20.0
fix fel all electron/stopping 1.0 Si.Si.elstop
Reading electron stopping data table potential file Si.Si.elstop with DATE: 2019-02-19
fix fnve all nve

thermo 10
thermo_style custom step time dt f_fel

#compute ek all ke/atom
#dump mydump all custom 200 elstop.dump id x y z vx vy vz fx fy fz c_ek

run 5000
Neighbor list info ...
  update: every = 1 steps, delay = 0 steps, check = yes
  max neighbors/atom: 2000, page size: 100000
  master list distance cutoff = 5.77118
  ghost atom cutoff = 5.77118
  binsize = 2.88559, bins = 38 38 38
  2 neighbor lists, perpetual/occasional/extra = 1 1 0
  (1) pair sw, perpetual
      attributes: full, newton on
      pair build: full/bin/atomonly
      stencil: full/bin/3d
      bin: standard
  (2) fix electron/stopping, occasional, copy from (1)
      attributes: full, newton on
      pair build: copy
      stencil: none
      bin: none
Per MPI rank memory allocation (min/avg/max) = 10.89 | 10.89 | 10.89 Mbytes
   Step          Time            Dt           f_fel     
         0   0              4.98128e-05    0            
        10   0.00030148934  7.4245523e-06  143.87147    
        20   0.00035976088  6.0698917e-06  171.65433    
        30   0.00057631368  3.5228568e-05  274.8977     
        40   0.00086624976  5.6740962e-06  413.03531    
        50   0.00090010782  2.0686616e-06  429.14893    
        60   0.00091762312  1.5052551e-06  437.47992    
        70   0.00093203235  1.4185242e-06  444.33181    
        80   0.00094695456  1.6542108e-06  451.42764    
        90   0.00096694335  2.7088266e-06  460.93508    
       100   0.0010263043   2.9955019e-05  489.18478    
       110   0.0012033223   2.8226904e-06  573.42329    
       120   0.0012215798   1.1393052e-06  582.10011    
       130   0.001230722    7.1360473e-07  586.44083    
       140   0.0012369073   5.252315e-07   589.37532    
       150   0.0012416454   4.2075622e-07  591.62163    
       160   0.0012455355   3.5526316e-07  593.46477    
       170   0.0012488758   3.1100115e-07  595.0465     
       180   0.0012518361   2.795976e-07   596.44762    
       190   0.0012545229   2.566125e-07   597.71877    
       200   0.0012570079   2.3948926e-07  598.89397    
       210   0.001259342    2.2666654e-07  599.99748    
       220   0.0012615635   2.1715167e-07  601.04742    
       230   0.0012637022   2.1029935e-07  602.05804    
       240   0.0012657827   2.0569049e-07  603.04102    
       250   0.0012678262   2.0306371e-07  604.00641    
       260   0.0012698518   2.0227687e-07  604.96327    
       270   0.0012718776   2.0328767e-07  605.92022    
       280   0.0012739218   2.0614791e-07  606.88587    
       290   0.0012760034   2.1101032e-07  607.8693     
       300   0.0012781436   2.1814924e-07  608.88054    
       310   0.001280367    2.2800101e-07  609.93127    
       320   0.0012827034   2.4123541e-07  611.0357     
       330   0.001285191    2.5888216e-07  612.21192    
       340   0.0012878805   2.825619e-07   613.48406    
       350   0.0012908431   3.1493281e-07  614.88594    
       360   0.0012941843   3.6062283e-07  616.4677     
       370   0.0012980718   4.2838915e-07  618.30903    
       380   0.0013027978   5.3688634e-07  620.54879    
       390   0.0013089433   7.3364565e-07  623.46321    
       400   0.001317943    1.1830013e-06  627.73426    
       410   0.0013353503   3.0185826e-06  636.00213    
       420   0.0015250898   3.1727619e-05  726.19397    
       430   0.001864359    3.3122235e-05  887.35477    
       440   0.0021572767   7.5672976e-06  1026.3727    
       450   0.0022123009   5.039874e-06   1052.4635    
       460   0.0023429634   4.9977903e-05  1114.4199    
       470   0.0026200605   4.9997988e-05  1245.7532    
       480   0.0030479975   4.0247608e-05  1448.3905    
       490   0.0034431019   3.5378653e-05  1635.2603    
       500   0.0038450327   3.7854253e-05  1825.1485    
       510   0.0041864614   1.1668779e-05  1986.2809    
       520   0.0043196794   5.0115571e-05  2049.0989    
       530   0.0046240175   3.7017292e-05  2192.5399    
       540   0.0050435354   2.549041e-05   2390.0759    
       550   0.0051448205   4.5592551e-06  2437.721     
       560   0.0051916394   6.2511389e-06  2459.7341    
       570   0.0054042703   1.0578163e-05  2559.7143    
       580   0.0054483983   1.7796775e-06  2580.4466    
       590   0.0054616227   9.5445887e-07  2586.653     
       600   0.005469669    6.6401838e-07  2590.4263    
       610   0.0054755889   5.196237e-07   2593.2005    
       620   0.0054803721   4.3525804e-07  2595.4407    
       630   0.0054844638   3.8140482e-07  2597.3562    
       640   0.0054881041   3.4533327e-07  2599.0596    
       650   0.005491439    3.2073184e-07  2600.6195    
       660   0.0054945661   3.0418802e-07  2602.0819    
       670   0.0054975566   2.9377537e-07  2603.4802    
       680   0.0055004664   2.8842233e-07  2604.8405    
       690   0.0055033434   2.8761702e-07  2606.1853    
       700   0.0055062323   2.91281e-07    2607.5358    
       710   0.005509179    2.9975028e-07  2608.9134    
       720   0.0055122348   3.1385468e-07  2610.3422    
       730   0.0055154623   3.3513253e-07  2611.8515    
       740   0.0055189441   3.66293e-07    2613.4803    
       750   0.0055227986   4.1221928e-07  2615.284     
       760   0.0055272104   4.8233495e-07  2617.3494    
       770   0.0055324993   5.970178e-07   2619.8265    
       780   0.0055393031   8.0910334e-07  2623.0151    
       790   0.0055492228   1.3068547e-06  2627.667     
       800   0.0055687809   3.5107742e-06  2636.8461    
       810   0.0057746644   2.6580465e-05  2733.539     
       820   0.0060778217   2.1625054e-05  2875.8182    
       830   0.0063455816   5.2902592e-06  3001.3825    
       840   0.0063720262   1.2493284e-06  3013.7684    
       850   0.0063813265   6.642092e-07   3018.1189    
       860   0.0063868326   4.4254481e-07  3020.6917    
       870   0.0063906912   3.2832378e-07  3022.4927    
       880   0.006393639    2.5943831e-07  3023.8673    
       890   0.0063960136   2.1368854e-07  3024.9733    
       900   0.006397996    1.8125174e-07  3025.8958    
       910   0.0063996945   1.571401e-07   3026.6854    
       920   0.0064011786   1.3856311e-07  3027.3747    
       930   0.0064024953   1.2384259e-07  3027.9856    
       940   0.0064036781   1.1191117e-07  3028.5339    
       950   0.0064047514   1.0205885e-07  3029.031     
       960   0.0064057336   9.3795753e-08  3029.4855    
       970   0.0064066391   8.6773346e-08  3029.9041    
       980   0.0064074789   8.073719e-08   3030.292     
       990   0.0064082621   7.5497352e-08  3030.6534    
      1000   0.006408996    7.0909297e-08  3030.9918    
      1010   0.0064096864   6.6861159e-08  3031.3099    
      1020   0.0064103385   6.3265063e-08  3031.6101    
      1030   0.0064109564   6.005105e-08   3031.8943    
      1040   0.0064115437   5.7162766e-08  3032.1642    
      1050   0.0064121034   5.4554324e-08  3032.4212    
      1060   0.0064126381   5.2187993e-08  3032.6665    
      1070   0.0064131501   5.0032481e-08  3032.9013    
      1080   0.0064136414   4.806162e-08   3033.1264    
      1090   0.0064141137   4.6253365e-08  3033.3426    
      1100   0.0064145687   4.4589021e-08  3033.5507    
      1110   0.0064150076   4.3052631e-08  3033.7514    
      1120   0.0064154316   4.1630498e-08  3033.945     
      1130   0.0064158419   4.0310798e-08  3034.1323    
      1140   0.0064162394   3.9083274e-08  3034.3136    
      1150   0.006416625    3.7938987e-08  3034.4894    
      1160   0.0064169995   3.6870113e-08  3034.66      
      1170   0.0064173637   3.5869772e-08  3034.8257    
      1180   0.0064177181   3.4931894e-08  3034.9869    
      1190   0.0064180634   3.4051103e-08  3035.1439    
      1200   0.0064184002   3.3222622e-08  3035.2969    
      1210   0.0064187288   3.244219e-08   3035.4461    
      1220   0.0064190499   3.1705998e-08  3035.5918    
      1230   0.0064193638   3.1010628e-08  3035.7341    
      1240   0.0064196709   3.0353008e-08  3035.8732    
      1250   0.0064199716   2.9730366e-08  3036.0094    
      1260   0.0064202662   2.9140197e-08  3036.1427    
      1270   0.0064205551   2.858023e-08   3036.2734    
      1280   0.0064208385   2.8048404e-08  3036.4015    
      1290   0.0064211167   2.7542842e-08  3036.5271    
      1300   0.0064213899   2.7061832e-08  3036.6505    
      1310   0.0064216585   2.6603813e-08  3036.7717    
      1320   0.0064219225   2.616735e-08   3036.8908    
      1330   0.0064221823   2.5751133e-08  3037.0078    
      1340   0.006422438    2.5353955e-08  3037.123     
      1350   0.0064226898   2.4974705e-08  3037.2364    
      1360   0.0064229379   2.4612363e-08  3037.3481    
      1370   0.0064231825   2.4265983e-08  3037.4581    
      1380   0.0064234236   2.3934694e-08  3037.5665    
      1390   0.0064236616   2.3617688e-08  3037.6734    
      1400   0.0064238964   2.3314217e-08  3037.7788    
      1410   0.0064241282   2.3023586e-08  3037.8829    
      1420   0.0064243571   2.2745152e-08  3037.9856    
      1430   0.0064245834   2.2478314e-08  3038.0871    
      1440   0.006424807    2.2222513e-08  3038.1873    
      1450   0.0064250281   2.1977231e-08  3038.2864    
      1460   0.0064252468   2.1741981e-08  3038.3843    
      1470   0.0064254632   2.1516309e-08  3038.4812    
      1480   0.0064256774   2.1299794e-08  3038.5771    
      1490   0.0064258895   2.1092037e-08  3038.6719    
      1500   0.0064260995   2.0892669e-08  3038.7658    
      1510   0.0064263075   2.0701341e-08  3038.8588    
      1520   0.0064265137   2.0517729e-08  3038.9509    
      1530   0.0064267181   2.0341527e-08  3039.0422    
      1540   0.0064269208   2.0172448e-08  3039.1326    
      1550   0.0064271217   2.0010223e-08  3039.2223    
      1560   0.0064273211   1.9854599e-08  3039.3112    
      1570   0.006427519    1.9705337e-08  3039.3995    
      1580   0.0064277154   1.9562215e-08  3039.487     
      1590   0.0064279104   1.9425022e-08  3039.5739    
      1600   0.0064281041   1.9293561e-08  3039.6601    
      1610   0.0064282964   1.9167644e-08  3039.7458    
      1620   0.0064284876   1.9047097e-08  3039.8309    
      1630   0.0064286775   1.8931754e-08  3039.9154    
      1640   0.0064288663   1.882146e-08   3039.9994    
      1650   0.0064290541   1.8716069e-08  3040.0829    
      1660   0.0064292408   1.8615444e-08  3040.1659    
      1670   0.0064294265   1.8519454e-08  3040.2485    
      1680   0.0064296113   1.8427979e-08  3040.3306    
      1690   0.0064297951   1.8340902e-08  3040.4122    
      1700   0.0064299782   1.8258118e-08  3040.4935    
      1710   0.0064301604   1.8179524e-08  3040.5744    
      1720   0.0064303419   1.8105026e-08  3040.655     
      1730   0.0064305226   1.8034536e-08  3040.7352    
      1740   0.0064307026   1.7967969e-08  3040.8151    
      1750   0.006430882    1.7905249e-08  3040.8946    
      1760   0.0064310608   1.7846302e-08  3040.9739    
      1770   0.006431239    1.7791062e-08  3041.0529    
      1780   0.0064314167   1.7739465e-08  3041.1317    
      1790   0.0064315939   1.7691454e-08  3041.2102    
      1800   0.0064317706   1.7646974e-08  3041.2885    
      1810   0.0064319469   1.7605977e-08  3041.3666    
      1820   0.0064321228   1.7568416e-08  3041.4446    
      1830   0.0064322983   1.7534252e-08  3041.5223    
      1840   0.0064324735   1.7503447e-08  3041.5999    
      1850   0.0064326484   1.7475967e-08  3041.6773    
      1860   0.006432823    1.7451782e-08  3041.7547    
      1870   0.0064329975   1.7430868e-08  3041.8319    
      1880   0.0064331717   1.74132e-08    3041.909     
      1890   0.0064333458   1.7398761e-08  3041.986     
      1900   0.0064335197   1.7387535e-08  3042.063     
      1910   0.0064336935   1.737951e-08   3042.1399    
      1920   0.0064338673   1.7374677e-08  3042.2168    
      1930   0.006434041    1.7373031e-08  3042.2936    
      1940   0.0064342148   1.7374571e-08  3042.3705    
      1950   0.0064343885   1.7379298e-08  3042.4473    
      1960   0.0064345624   1.7387216e-08  3042.5242    
      1970   0.0064347363   1.7398335e-08  3042.6011    
      1980   0.0064349103   1.7412666e-08  3042.6781    
      1990   0.0064350845   1.7430223e-08  3042.7551    
      2000   0.0064352589   1.7451027e-08  3042.8322    
      2010   0.0064354335   1.7475098e-08  3042.9094    
      2020   0.0064356084   1.7502463e-08  3042.9868    
      2030   0.0064357836   1.7533151e-08  3043.0642    
      2040   0.006435959    1.7567195e-08  3043.1418    
      2050   0.0064361349   1.7604632e-08  3043.2196    
      2060   0.0064363111   1.7645503e-08  3043.2975    
      2070   0.0064364878   1.7689853e-08  3043.3756    
      2080   0.0064366649   1.773773e-08   3043.4539    
      2090   0.0064368425   1.7789189e-08  3043.5325    
      2100   0.0064370206   1.7844286e-08  3043.6112    
      2110   0.0064371993   1.7903085e-08  3043.6903    
      2120   0.0064373786   1.7965652e-08  3043.7696    
      2130   0.0064375586   1.803206e-08   3043.8492    
      2140   0.0064377392   1.8102385e-08  3043.9291    
      2150   0.0064379206   1.8176711e-08  3044.0093    
      2160   0.0064381027   1.8255125e-08  3044.0899    
      2170   0.0064382856   1.8337723e-08  3044.1708    
      2180   0.0064384694   1.8424604e-08  3044.2521    
      2190   0.006438654    1.8515875e-08  3044.3338    
      2200   0.0064388396   1.8611652e-08  3044.416     
      2210   0.0064390262   1.8712054e-08  3044.4986    
      2220   0.0064392138   1.881721e-08   3044.5816    
      2230   0.0064394024   1.8927258e-08  3044.6652    
      2240   0.0064395922   1.9042342e-08  3044.7492    
      2250   0.0064397832   1.9162618e-08  3044.8338    
      2260   0.0064399754   1.928825e-08   3044.9189    
      2270   0.0064401688   1.9419411e-08  3045.0047    
      2280   0.0064403636   1.9556288e-08  3045.091     
      2290   0.0064405598   1.9699076e-08  3045.1779    
      2300   0.0064407575   1.9847986e-08  3045.2656    
      2310   0.0064409567   2.0003238e-08  3045.3539    
      2320   0.0064411574   2.0165071e-08  3045.4429    
      2330   0.0064413598   2.0333735e-08  3045.5327    
      2340   0.0064415639   2.0509498e-08  3045.6233    
      2350   0.0064417699   2.0692645e-08  3045.7147    
      2360   0.0064419776   2.088348e-08   3045.8069    
      2370   0.0064421874   2.1082325e-08  3045.9001    
      2380   0.0064423991   2.1289527e-08  3045.9941    
      2390   0.006442613    2.1505454e-08  3046.0891    
      2400   0.006442829    2.1730498e-08  3046.1852    
      2410   0.0064430474   2.1965082e-08  3046.2822    
      2420   0.0064432681   2.2209655e-08  3046.3804    
      2430   0.0064434914   2.2464698e-08  3046.4797    
      2440   0.0064437172   2.2730729e-08  3046.5802    
      2450   0.0064439457   2.3008302e-08  3046.6819    
      2460   0.0064441771   2.3298011e-08  3046.7849    
      2470   0.0064444114   2.3600497e-08  3046.8893    
      2480   0.0064446489   2.3916448e-08  3046.9951    
      2490   0.0064448895   2.4246606e-08  3047.1023    
      2500   0.0064451335   2.4591771e-08  3047.2111    
      2510   0.006445381    2.4952809e-08  3047.3216    
      2520   0.0064456322   2.5330655e-08  3047.4337    
      2530   0.0064458873   2.5726322e-08  3047.5475    
      2540   0.0064461464   2.6140909e-08  3047.6632    
      2550   0.0064464098   2.6575611e-08  3047.7809    
      2560   0.0064466776   2.7031727e-08  3047.9006    
      2570   0.00644695     2.7510675e-08  3048.0224    
      2580   0.0064472274   2.8014002e-08  3048.1465    
      2590   0.0064475099   2.85434e-08    3048.2729    
      2600   0.0064477978   2.9100724e-08  3048.4018    
      2610   0.0064480914   2.9688013e-08  3048.5333    
      2620   0.0064483911   3.030751e-08   3048.6676    
      2630   0.006448697    3.0961689e-08  3048.8048    
      2640   0.0064490097   3.1653286e-08  3048.9451    
      2650   0.0064493295   3.2385334e-08  3049.0886    
      2660   0.0064496568   3.3161203e-08  3049.2356    
      2670   0.0064499921   3.3984648e-08  3049.3862    
      2680   0.0064503359   3.4859867e-08  3049.5407    
      2690   0.0064506886   3.5791565e-08  3049.6993    
      2700   0.0064510509   3.678503e-08   3049.8624    
      2710   0.0064514235   3.7846234e-08  3050.0301    
      2720   0.006451807    3.8981935e-08  3050.2029    
      2730   0.0064522022   4.0199818e-08  3050.381     
      2740   0.0064526101   4.1508654e-08  3050.565     
      2750   0.0064530314   4.2918498e-08  3050.7551    
      2760   0.0064534673   4.4440928e-08  3050.952     
      2770   0.006453919    4.6089346e-08  3051.1561    
      2780   0.0064543879   4.7879348e-08  3051.368     
      2790   0.0064548753   4.9829181e-08  3051.5885    
      2800   0.006455383    5.1960335e-08  3051.8184    
      2810   0.006455913    5.4298282e-08  3052.0584    
      2820   0.0064564673   5.6873437e-08  3052.3097    
      2830   0.0064570486   5.9722403e-08  3052.5734    
      2840   0.0064576598   6.2889614e-08  3052.8509    
      2850   0.0064583043   6.6429523e-08  3053.1436    
      2860   0.0064589861   7.0409563e-08  3053.4535    
      2870   0.00645971     7.4914211e-08  3053.7828    
      2880   0.0064604817   8.0050676e-08  3054.1341    
      2890   0.0064613081   8.5957e-08     3054.5106    
      2900   0.0064621976   9.2813854e-08  3054.9162    
      2910   0.0064631609   1.0086215e-07  3055.3557    
      2920   0.0064642112   1.104301e-07   3055.8353    
      2930   0.0064653656   1.2197608e-07  3056.3629    
      2940   0.0064666466   1.3615929e-07  3056.9488    
      2950   0.0064680848   1.539614e-07   3057.6072    
      2960   0.0064697226   1.7690776e-07  3058.3576    
      2970   0.0064716216   2.0749667e-07  3059.2284    
      2980   0.0064738758   2.5010519e-07  3060.263     
      2990   0.0064766383   3.1311801e-07  3061.5321    
      3000   0.0064801825   4.1472727e-07  3063.1618    
      3010   0.0064850673   6.0255431e-07  3065.4101    
      3020   0.006492726    1.0488115e-06  3068.9386    
      3030   0.0065091567   3.0870179e-06  3076.5162    
      3040   0.0066872552   9.5554837e-06  3158.7209    
      3050   0.0067260683   1.4837083e-06  3176.6212    
      3060   0.0067367974   7.4339292e-07  3181.5629    
      3070   0.006742897    4.848648e-07   3184.3691    
      3080   0.0067471045   3.5619543e-07  3186.3028    
      3090   0.0067502949   2.8007236e-07  3187.7676    
      3100   0.0067528552   2.301242e-07   3188.9419    
      3110   0.006754989    1.950027e-07   3189.9197    
      3120   0.0067568163   1.690514e-07   3190.7562    
      3130   0.0067584131   1.4914741e-07  3191.4865    
      3140   0.006759831    1.3343123e-07  3192.1344    
      3150   0.006761106    1.2072927e-07  3192.7165    
      3160   0.0067622646   1.1026564e-07  3193.245     
      3170   0.0067633266   1.0150764e-07  3193.729     
      3180   0.0067643073   9.4077872e-08  3194.1756    
      3190   0.0067652186   8.770175e-08   3194.5903    
      3200   0.0067660701   8.2174905e-08  3194.9774    
      3210   0.0067668696   7.7342205e-08  3195.3406    
      3220   0.0067676235   7.3083844e-08  3195.6828    
      3230   0.0067683369   6.9305886e-08  3196.0064    
      3240   0.0067690145   6.5933671e-08  3196.3135    
      3250   0.00676966     6.2907148e-08  3196.6058    
      3260   0.0067702765   6.0177479e-08  3196.8849    
      3270   0.006770867    5.7704559e-08  3197.1519    
      3280   0.0067714337   5.5455159e-08  3197.4081    
      3290   0.0067719789   5.3401517e-08  3197.6543    
      3300   0.0067725043   5.152027e-08   3197.8915    
      3310   0.0067730116   4.9791619e-08  3198.1203    
      3320   0.0067735022   4.8198678e-08  3198.3415    
      3330   0.0067739775   4.6726963e-08  3198.5556    
      3340   0.0067744386   4.5363979e-08  3198.7631    
      3350   0.0067748864   4.4098898e-08  3198.9646    
      3360   0.0067753221   4.2922285e-08  3199.1605    
      3370   0.0067757463   4.1825889e-08  3199.3512    
      3380   0.0067761599   4.0802462e-08  3199.5369    
      3390   0.0067765635   3.9845612e-08  3199.7181    
      3400   0.0067769579   3.8949681e-08  3199.8951    
      3410   0.0067773436   3.8109646e-08  3200.068     
      3420   0.0067777211   3.7321034e-08  3200.2372    
      3430   0.0067780909   3.6579844e-08  3200.4028    
      3440   0.0067784536   3.5882495e-08  3200.5652    
      3450   0.0067788094   3.5225768e-08  3200.7244    
      3460   0.0067791588   3.4606763e-08  3200.8807    
      3470   0.0067795023   3.4022862e-08  3201.0342    
      3480   0.00677984     3.3471699e-08  3201.1852    
      3490   0.0067801723   3.2951124e-08  3201.3336    
      3500   0.0067804996   3.2459187e-08  3201.4797    
      3510   0.0067808221   3.1994113e-08  3201.6236    
      3520   0.00678114     3.1554283e-08  3201.7654    
      3530   0.0067814537   3.1138218e-08  3201.9053    
      3540   0.0067817633   3.0744566e-08  3202.0433    
      3550   0.006782069    3.037209e-08   3202.1795    
      3560   0.0067823711   3.0019653e-08  3202.3141    
      3570   0.0067826698   2.9686214e-08  3202.4471    
      3580   0.0067829652   2.9370815e-08  3202.5785    
      3590   0.0067832576   2.9072575e-08  3202.7086    
      3600   0.006783547    2.8790684e-08  3202.8373    
      3610   0.0067838337   2.8524394e-08  3202.9648    
      3620   0.0067841178   2.8273018e-08  3203.0911    
      3630   0.0067843995   2.8035921e-08  3203.2162    
      3640   0.0067846788   2.7812519e-08  3203.3403    
      3650   0.006784956    2.7602271e-08  3203.4634    
      3660   0.0067852311   2.7404682e-08  3203.5856    
      3670   0.0067855043   2.7219294e-08  3203.7068    
      3680   0.0067857757   2.7045683e-08  3203.8272    
      3690   0.0067860454   2.6883464e-08  3203.9469    
      3700   0.0067863136   2.6732278e-08  3204.0658    
      3710   0.0067865803   2.6591799e-08  3204.1841    
      3720   0.0067868456   2.6461727e-08  3204.3017    
      3730   0.0067871097   2.634179e-08   3204.4188    
      3740   0.0067873726   2.6231738e-08  3204.5353    
      3750   0.0067876344   2.6131345e-08  3204.6513    
      3760   0.0067878953   2.6040407e-08  3204.7669    
      3770   0.0067881554   2.5958743e-08  3204.882     
      3780   0.0067884146   2.588619e-08   3204.9969    
      3790   0.0067886732   2.5822604e-08  3205.1114    
      3800   0.0067889312   2.576786e-08   3205.2256    
      3810   0.0067891886   2.5721853e-08  3205.3396    
      3820   0.0067894457   2.5684493e-08  3205.4533    
      3830   0.0067897024   2.5655707e-08  3205.567     
      3840   0.0067899588   2.563544e-08   3205.6805    
      3850   0.0067902151   2.5623654e-08  3205.7939    
      3860   0.0067904713   2.5620325e-08  3205.9072    
      3870   0.0067907276   2.5625447e-08  3206.0206    
      3880   0.0067909839   2.5639029e-08  3206.134     
      3890   0.0067912404   2.5661096e-08  3206.2475    
      3900   0.0067914971   2.5691692e-08  3206.3611    
      3910   0.0067917542   2.5730874e-08  3206.4748    
      3920   0.0067920117   2.5778717e-08  3206.5888    
      3930   0.0067922697   2.5835313e-08  3206.7029    
      3940   0.0067925284   2.5900772e-08  3206.8173    
      3950   0.0067927877   2.5975223e-08  3206.9321    
      3960   0.0067930478   2.6058811e-08  3207.0472    
      3970   0.0067933088   2.6151703e-08  3207.1627    
      3980   0.0067935708   2.6254084e-08  3207.2786    
      3990   0.0067938338   2.6366162e-08  3207.395     
      4000   0.006794098    2.6488166e-08  3207.5119    
      4010   0.0067943635   2.662035e-08   3207.6294    
      4020   0.0067946303   2.6762991e-08  3207.7475    
      4030   0.0067948987   2.6916393e-08  3207.8663    
      4040   0.0067951685   2.7080888e-08  3207.9858    
      4050   0.0067954401   2.7256837e-08  3208.106     
      4060   0.0067957135   2.7444633e-08  3208.2271    
      4070   0.0067959889   2.7644705e-08  3208.3491    
      4080   0.0067962663   2.7857516e-08  3208.4719    
      4090   0.0067965459   2.808357e-08   3208.5958    
      4100   0.0067968278   2.8323413e-08  3208.7207    
      4110   0.0067971121   2.8577637e-08  3208.8468    
      4120   0.0067973991   2.8846885e-08  3208.974     
      4130   0.0067976888   2.9131854e-08  3209.1025    
      4140   0.0067979815   2.9433299e-08  3209.2323    
      4150   0.0067982773   2.9752043e-08  3209.3635    
      4160   0.0067985763   3.0088977e-08  3209.4961    
      4170   0.0067988787   3.0445071e-08  3209.6304    
      4180   0.0067991849   3.082138e-08   3209.7663    
      4190   0.0067994949   3.1219055e-08  3209.904     
      4200   0.0067998089   3.163935e-08   3210.0435    
      4210   0.0068001273   3.2083634e-08  3210.1849    
      4220   0.0068004502   3.2553406e-08  3210.3285    
      4230   0.006800778    3.3050305e-08  3210.4742    
      4240   0.0068011108   3.3576132e-08  3210.6222    
      4250   0.0068014491   3.4132862e-08  3210.7727    
      4260   0.006801793    3.4722674e-08  3210.9258    
      4270   0.006802143    3.5347968e-08  3211.0816    
      4280   0.0068024995   3.6011399e-08  3211.2404    
      4290   0.0068028627   3.6715906e-08  3211.4022    
      4300   0.0068032332   3.7464754e-08  3211.5674    
      4310   0.0068036114   3.826158e-08   3211.736     
      4320   0.0068039978   3.9110439e-08  3211.9084    
      4330   0.0068043929   4.0015873e-08  3212.0847    
      4340   0.0068047974   4.0982983e-08  3212.2653    
      4350   0.0068052118   4.2017511e-08  3212.4505    
      4360   0.0068056369   4.312595e-08   3212.6405    
      4370   0.0068060734   4.4315664e-08  3212.8357    
      4380   0.0068065223   4.5595037e-08  3213.0364    
      4390   0.0068069843   4.6973658e-08  3213.2433    
      4400   0.0068074607   4.8462538e-08  3213.4566    
      4410   0.0068079524   5.0074384e-08  3213.6769    
      4420   0.0068084609   5.1823931e-08  3213.9049    
      4430   0.0068089876   5.3728363e-08  3214.1411    
      4440   0.0068095341   5.5807837e-08  3214.3864    
      4450   0.0068101023   5.8086147e-08  3214.6415    
      4460   0.0068106942   6.0591573e-08  3214.9075    
      4470   0.0068113123   6.3357985e-08  3215.1854    
      4480   0.0068119595   6.6426273e-08  3215.4766    
      4490   0.0068126388   6.9846251e-08  3215.7824    
      4500   0.0068133541   7.3679207e-08  3216.1046    
      4510   0.0068141099   7.8001363e-08  3216.4453    
      4520   0.0068149115   8.290868e-08   3216.8069    
      4530   0.0068157652   8.8523604e-08  3217.1923    
      4540   0.0068166788   9.5004778e-08  3217.605     
      4550   0.0068176619   1.0256132e-07  3218.0494    
      4560   0.0068187263   1.1147436e-07  3218.5309    
      4570   0.0068198874   1.2213057e-07  3219.0566    
      4580   0.0068211648   1.3507607e-07  3219.6353    
      4590   0.0068225847   1.5110689e-07  3220.2792    
      4600   0.0068241831   1.7142795e-07  3221.0045    
      4610   0.0068260105   1.9794975e-07  3221.8345    
      4620   0.0068281421   2.3388305e-07  3222.8035    
      4630   0.0068306951   2.8504677e-07  3223.9651    
      4640   0.0068338671   3.6311886e-07  3225.4096    
      4650   0.0068380289   4.9523023e-07  3227.3066    
      4660   0.0068440006   7.607938e-07   3230.0312    
      4670   0.0068542295   1.5194447e-06  3234.7028    
      4680   0.0068856746   1.0018449e-05  3249.0793    
      4690   0.0071559242   2.0290425e-05  3372.6658    
      4700   0.0075009095   5.0909044e-05  3530.297     
      4710   0.0076780286   3.0679487e-06  3611.1625    
      4720   0.0076988033   1.3822256e-06  3620.6354    
      4730   0.0077103047   9.4404697e-07  3625.876     
      4740   0.0077187936   7.577512e-07   3629.7419    
      4750   0.0077259083   6.6667903e-07  3632.9808    
      4760   0.0077323584   6.2575519e-07  3635.9164    
      4770   0.0077385629   6.1987553e-07  3638.74      
      4780   0.0077448548   6.4703412e-07  3641.6033    
      4790   0.0077515949   7.1644029e-07  3644.6711    
      4800   0.0077593133   8.5758381e-07  3648.185     
      4810   0.0077690485   1.1620207e-06  3652.6189    
      4820   0.0077837205   2.0451672e-06  3659.3049    
      4830   0.0078230332   1.2030379e-05  3677.2329    
      4840   0.0080136654   3.4386817e-06  3764.1833    
      4850   0.0080349641   1.2761329e-06  3773.8859    
      4860   0.0080451211   7.8710891e-07  3778.5085    
      4870   0.0080519343   5.7830188e-07  3781.6068    
      4880   0.0080571573   4.6486894e-07  3783.9804    
      4890   0.0080614663   3.9497918e-07  3785.9375    
      4900   0.0080651929   3.4862426e-07  3787.6292    
      4910   0.0080685253   3.1652141e-07  3789.1413    
      4920   0.008071582    2.9382232e-07  3790.5277    
      4930   0.0080744433   2.7778812e-07  3791.8252    
      4940   0.0080771681   2.6679698e-07  3793.0604    
      4950   0.0080798018   2.5987619e-07  3794.2542    
      4960   0.0080823825   2.564679e-07   3795.4238    
      4970   0.0080849438   2.5631139e-07  3796.5845    
      4980   0.0080875181   2.5939229e-07  3797.7511    
      4990   0.0080901384   2.6593963e-07  3798.9388    
      5000   0.0080928416   2.7646936e-07  3800.1641    
Loop time of 10.2233 on 1 procs for 5000 steps with 32000 atoms

Performance: 0.012 ns/day, 2054.329 hours/ns, 489.081 timesteps/s, 15.651 Matom-step/s
99.6% CPU use with 1 MPI tasks x 1 OpenMP threads

MPI task timing breakdown:
Section |  min time  |  avg time  |  max time  |%varavg| %total
---------------------------------------------------------------
Pair    | 6.4576     | 6.4576     | 6.4576     |   0.0 | 63.17
Neigh   | 0.67524    | 0.67524    | 0.67524    |   0.0 |  6.60
Comm    | 0.21558    | 0.21558    | 0.21558    |   0.0 |  2.11
Output  | 0.006056   | 0.006056   | 0.006056   |   0.0 |  0.06
Modify  | 2.6286     | 2.6286     | 2.6286     |   0.0 | 25.71
Other   |            | 0.2402     |            |       |  2.35

Nlocal:          32000 ave       32000 max       32000 min
Histogram: 1 0 0 0 0 0 0 0 0 0
Nghost:          13556 ave       13556 max       13556 min
Histogram: 1 0 0 0 0 0 0 0 0 0
Neighs:              0 ave           0 max           0 min
Histogram: 1 0 0 0 0 0 0 0 0 0
FullNghs:       576004 ave      576004 max      576004 min
Histogram: 1 0 0 0 0 0 0 0 0 0

Total # of neighbors = 576004
Ave neighs/atom = 18.000125
Neighbor list builds = 73
Dangerous builds = 0
Total wall time: 0:00:10
