#Roy-Maroncelli BMI-PF6 + carbon
pair_modify mix arithmetic
pair_coeff 1 1 0.61185 4.38
pair_coeff 2 2 0.08604 3.41
pair_coeff 3 3 0.43738 5.04
pair_coeff 4 4 1.12572 5.06
pair_coeff 5 5 0.05497 3.37

bond_coeff 1 200 2.7076
bond_coeff 2 200 3.8213
angle_coeff 1 200 116.035

group BMI type 1 2 3
fix fx_rattle_BMI BMI shake 1e-4 20 0 b 1 2 a 1

group bot molecule 641
group top molecule 642
group ele union bot top
group electrolyte type 1 2 3 4
