LAMMPS (30 Sep 2026 - Development - patch_30Sep2026-370-gf4fad8ee3a-modified)
  using 1 OpenMP thread(s) per MPI task
# 3d Lennard-Jones melt

units           lj
atom_style      atomic

lattice         fcc 0.8442
Lattice spacing in x,y,z = 1.6795962 1.6795962 1.6795962
region          box block 0 2 0 2 0 2
create_box      1 box
Created orthogonal box = (0 0 0) to (3.3591924 3.3591924 3.3591924)
  1 by 1 by 1 MPI processor grid
create_atoms    1 box
Created 32 atoms
  using lattice units in orthogonal box = (0 0 0) to (3.3591924 3.3591924 3.3591924)
  create_atoms CPU = 0.000 seconds
mass            1 1.0

velocity        all create 3.0 87287 loop geom

pair_style      lj/cut 2.5
pair_coeff      1 1 1.0 1.0 2.5

neighbor        0.1 bin

neigh_modify    every 20 delay 0 check no

python         post_force_callback here """
from __future__ import print_function
from lammps import lammps
def post_force_callback(lmp, v):
  try:
    import os
    pid = os.getpid()
    pid_prefix = "[{}] ".format(pid)
    L = lammps(ptr=lmp)
    t = L.extract_global("ntimestep", 0)
    print(pid_prefix, "### POST_FORCE ###", t)
    #mylist = L.numpy.get_neighlist(0)
    idx = L.find_pair_neighlist("lj/cut", exact=False, reqid=0)
    mylist = L.numpy.get_neighlist(idx)
    print(pid_prefix, mylist)
    nlocal = L.extract_global("nlocal")
    nghost = L.extract_global("nghost")
    mass = L.numpy.extract_atom("mass")
    atype = L.numpy.extract_atom("type", nelem=nlocal+nghost)
    x = L.numpy.extract_atom("x", nelem=nlocal+nghost, dim=3)
    v = L.numpy.extract_atom("v", nelem=nlocal+nghost, dim=3)
    f = L.numpy.extract_atom("f", nelem=nlocal+nghost, dim=3)
    for iatom, neighs in mylist:
      print(pid_prefix, "- {}".format(iatom), x[iatom], v[iatom], f[iatom], " : ",  len(neighs), "Neighbors")
      for jatom in neighs:
        if jatom < nlocal:
            print(pid_prefix, "    *  ", jatom, x[jatom], v[jatom], f[jatom])
        else:
            print(pid_prefix, "    * [GHOST]", jatom, x[jatom], v[jatom], f[jatom])
  except Exception as e:
    print(e)
"""

fix             1 all nve
fix     3 all python/invoke 50 post_force post_force_callback

#dump           id all atom 1 dump.melt

#dump           2 all image 1 image.*.jpg type type #               axes yes 0.8 0.02 view 60 -30
#dump_modify    2 pad 3

#dump           3 all movie 1 movie.mpg type type #               axes yes 0.8 0.02 view 60 -30
#dump_modify    3 pad 3

thermo          1
run             100
Generated 0 of 0 mixed pair_coeff terms from geometric mixing rule
Neighbor list info ...
  update: every = 20 steps, delay = 0 steps, check = no
  max neighbors/atom: 2000, page size: 100000
  master list distance cutoff = 2.6
  ghost atom cutoff = 2.6
  binsize = 1.3, bins = 3 3 3
  1 neighbor lists, perpetual/occasional/extra = 1 0 0
  (1) pair lj/cut, perpetual
      attributes: half, newton on
      pair build: half/bin/atomonly/newton
      stencil: half/bin/3d
      bin: standard
Per MPI rank memory allocation (min/avg/max) = 2.581 | 2.581 | 2.581 Mbytes
   Step          Temp          E_pair         E_mol          TotEng         Press     
         0   3             -6.7733681      0             -2.4139931     -3.781861     
         1   2.9949957     -6.7661403      0             -2.4140372     -3.7357018    
         2   2.9794274     -6.7437482      0             -2.4142678     -3.595336     
         3   2.9514017     -6.7034561      0             -2.4147005     -3.3527235    
         4   2.9073957     -6.6401682      0             -2.4153588     -2.9928039    
         5   2.8422088     -6.544303       0             -2.4142183     -2.4901371    
         6   2.7491146     -6.4055041      0             -2.4106969     -1.8161494    
         7   2.620709      -6.2178913      0             -2.4096735     -0.95095706   
         8   2.4517698     -5.9677027      0             -2.4049747      0.13090891   
         9   2.2446165     -5.6626842      0             -2.4009759      1.3994219    
        10   2.0155734     -5.3251387      0             -2.3962587      2.7668674    
        11   1.7965908     -5.0019555      0             -2.3912845      4.0686202    
        12   1.6243783     -4.7480998      0             -2.3876751      5.1171258    
        13   1.5213732     -4.5972161      0             -2.3864707      5.7972168    
        14   1.4859688     -4.5455671      0             -2.3862687      6.1166939    
        15   1.4997046     -4.5664434      0             -2.3871851      6.1646148    
        16   1.540337      -4.6253594      0             -2.3870573      6.054908     
        17   1.5896498     -4.6963173      0             -2.3863575      5.8803184    
        18   1.6353202     -4.7620595      0             -2.3857349      5.7062865    
        19   1.6701774     -4.811832       0             -2.3848554      5.5749949    
        20   1.6906295     -4.8839192      0             -2.4272232      5.4369705    
        21   1.693867      -4.8895499      0             -2.4281493      5.4513927    
        22   1.6760211     -4.8632712      0             -2.4278031      5.5695194    
        23   1.6335996     -4.7997336      0             -2.4259092      5.8073991    
        24   1.5714574     -4.7110789      0             -2.4275549      6.1327172    
        25   1.514054      -4.6244079      0             -2.4242982      6.444069     
        26   1.4969263     -4.597807       0             -2.422586       6.5597413    
        27   1.5301308     -4.6483503      0             -2.424879       6.425424     
        28   1.5842205     -4.7272761      0             -2.4252056      6.1914304    
        29   1.6236639     -4.7817658      0             -2.4223791      6.0268307    
        30   1.6346465     -4.7931688      0             -2.4178231      5.9937585    
        31   1.6222644     -4.7706602      0             -2.4133072      6.0666008    
        32   1.5986076     -4.7355673      0             -2.4125906      6.1835442    
        33   1.5748777     -4.6994316      0             -2.4109374      6.3005062    
        34   1.5571724     -4.6732492      0             -2.4104831      6.3850977    
        35   1.5452037     -4.6553999      0             -2.4100258      6.4401598    
        36   1.5340192     -4.6393157      0             -2.4101941      6.487335     
        37   1.5178575     -4.6156358      0             -2.4099992      6.5546766    
        38   1.4949556     -4.5813974      0             -2.40904        6.6506324    
        39   1.4709507     -4.5448872      0             -2.407412       6.7481462    
        40   1.4572654     -4.545053       0             -2.4274642      6.755662     
        41   1.4624903     -4.5533576      0             -2.4281764      6.7007524    
        42   1.4850194     -4.5875623      0             -2.4296435      6.5563513    
        43   1.5157362     -4.6324615      0             -2.4299073      6.3688303    
        44   1.5461913     -4.678439       0             -2.4316297      6.1741584    
        45   1.5728664     -4.7165572      0             -2.4309857      5.996662     
        46   1.5957773     -4.7496945      0             -2.4308307      5.8332039    
        47   1.615718      -4.7765729      0             -2.4287327      5.6859346    
        48   1.6328373     -4.800969       0             -2.4282523      5.549604     
        49   1.6467959     -4.8191878      0             -2.4261875      5.4319653    
        50   1.6577299     -4.8344362      0             -2.4255473      5.3274638    
        51   1.667013      -4.847123       0             -2.4247448      5.2319708    
        52   1.6772841     -4.8606775      0             -2.423374       5.1332786    
        53   1.6916671     -4.8802795      0             -2.4220757      5.0153331    
        54   1.7125374     -4.9105311      0             -2.4220003      4.8653106    
        55   1.7403221     -4.9495287      0             -2.4206232      4.6865062    
        56   1.7728463     -4.9961565      0             -2.4199892      4.4873457    
        57   1.8058889     -5.0411003      0             -2.416918       4.2953423    
        58   1.8345187     -5.0846549      0             -2.4188699      4.1238889    
        59   1.8544272     -5.1123167      0             -2.4176022      4.0097248    
        60   1.8629172     -5.1455927      0             -2.4385411      3.925749     
        61   1.8582477     -5.1420349      0             -2.4417686      3.948489     
        62   1.8390871     -5.1154026      0             -2.4429792      4.0573938    
        63   1.8045188     -5.0628232      0             -2.4406317      4.2579964    
        64   1.7543556     -4.9909834      0             -2.4416854      4.5366058    
        65   1.6905832     -4.8959414      0             -2.4393127      4.8914047    
        66   1.619158      -4.7902465      0             -2.4374075      5.2830787    
        67   1.5511675     -4.6870919      0             -2.4330517      5.6595846    
        68   1.5005818     -4.6110305      0             -2.4304977      5.943672     
        69   1.4777984     -4.5758132      0             -2.4283873      6.0852779    
        70   1.4838993     -4.5854589      0             -2.4291678      6.073439     
        71   1.5112511     -4.6272429      0             -2.4312062      5.9465755    
        72   1.5490474     -4.6829529      0             -2.4319934      5.7606304    
        73   1.5880563     -4.7350233      0             -2.427379       5.5678858    
        74   1.6219118     -4.7844952      0             -2.4276546      5.3832429    
        75   1.6468982     -4.8208046      0             -2.4276557      5.2352385    
        76   1.6623655     -4.8434117      0             -2.4277868      5.1286956    
        77   1.6716005     -4.856073       0             -2.4270285      5.0521867    
        78   1.6815037     -4.8680945      0             -2.4246595      4.9767555    
        79   1.6995988     -4.8929132      0             -2.4231837      4.8650195    
        80   1.7296386     -4.9492289      0             -2.4358478      4.6796569    
        81   1.7684462     -5.0059582      0             -2.4361848      4.4824396    
        82   1.8070966     -5.0646141      0             -2.4386768      4.293012     
        83   1.8354196     -5.1038985      0             -2.4368044      4.1719843    
        84   1.846069      -5.1216316      0             -2.4390626      4.1403796    
        85   1.8361802     -5.1087319      0             -2.4405326      4.2193573    
        86   1.8065155     -5.0633947      0             -2.4383018      4.4080998    
        87   1.7597743     -4.99528        0             -2.438108       4.6805562    
        88   1.6998164     -4.9088597      0             -2.4388141      5.0154085    
        89   1.6322578     -4.8081001      0             -2.4362255      5.3874543    
        90   1.5651485     -4.707761       0             -2.4334045      5.7477001    
        91   1.5083123     -4.6223516      0             -2.4305853      6.0442779    
        92   1.4713454     -4.565457       0             -2.4274082      6.229118     
        93   1.4614174     -4.549678       0             -2.4260558      6.2634981    
        94   1.4816519     -4.5781777      0             -2.4251522      6.135986     
        95   1.529892      -4.6509384      0             -2.4278141      5.8544625    
        96   1.5984708     -4.7520722      0             -2.4292944      5.4677234    
        97   1.6759559     -4.8651185      0             -2.4297451      5.0351494    
        98   1.7504568     -4.9725311      0             -2.4288986      4.6192093    
        99   1.8125561     -5.0605344      0             -2.4266638      4.2701144    
       100   1.8564177     -5.1385342      0             -2.4409273      3.9904252    
Loop time of 0.130548 on 1 procs for 100 steps with 32 atoms

Performance: 330912.945 tau/day, 766.002 timesteps/s, 24.512 katom-step/s
99.6% CPU use with 1 MPI tasks x 1 OpenMP threads

MPI task timing breakdown:
Section |  min time  |  avg time  |  max time  |%varavg| %total
---------------------------------------------------------------
Pair    | 0.0010483  | 0.0010483  | 0.0010483  |   0.0 |  0.80
Neigh   | 0.00016451 | 0.00016451 | 0.00016451 |   0.0 |  0.13
Comm    | 0.00015212 | 0.00015212 | 0.00015212 |   0.0 |  0.12
Output  | 0.00033815 | 0.00033815 | 0.00033815 |   0.0 |  0.26
Modify  | 0.12879    | 0.12879    | 0.12879    |   0.0 | 98.66
Other   |            | 5.099e-05  |            |       |  0.04

Nlocal:             32 ave          32 max          32 min
Histogram: 1 0 0 0 0 0 0 0 0 0
Nghost:            531 ave         531 max         531 min
Histogram: 1 0 0 0 0 0 0 0 0 0
Neighs:            976 ave         976 max         976 min
Histogram: 1 0 0 0 0 0 0 0 0 0

Total # of neighbors = 976
Ave neighs/atom = 30.5
Neighbor list builds = 5
Dangerous builds not checked
Total wall time: 0:00:00
