# Test of MEAM potential for Si-C system

units		metal
boundary	p p p

atom_style	atomic

read_data	data.sic

pair_style	meam
pair_coeff	* * library.meam Si C sic.meam Si C

neighbor	0.3 bin
neigh_modify	delay 10

fix		1 all nve
thermo		10
timestep	0.001

run		100


