LAMMPS (4 Jul 2026 - Development - patch_4Jul2026-848-gd03be1b44b)
  using 1 OpenMP thread(s) per MPI task

units real

molecule water tip3p.mol
Read molecule template water:
# Water molecule. TIP3P geometry
  1 molecules
  0 fragments
  0 bodies
  3 atoms with max type 2
  2 bonds with max type 1
  1 angles with max type 1
  0 dihedrals with max type 0
  0 impropers with max type 0
atom_style     full

variable        radius equal 100.0
region          box block $(-v_radius) $(v_radius) $(-v_radius) $(v_radius) $(-v_radius) $(v_radius)
region          box block -100 $(v_radius) $(-v_radius) $(v_radius) $(-v_radius) $(v_radius)
region          box block -100 100 $(-v_radius) $(v_radius) $(-v_radius) $(v_radius)
region          box block -100 100 -100 $(v_radius) $(-v_radius) $(v_radius)
region          box block -100 100 -100 100 $(-v_radius) $(v_radius)
region          box block -100 100 -100 100 -100 $(v_radius)
region          box block -100 100 -100 100 -100 100
create_box 2 box bond/types 1 angle/types 1             extra/bond/per/atom 2 extra/angle/per/atom 1 extra/special/per/atom 2
Created orthogonal box = (-100 -100 -100) to (100 100 100)
  1 by 1 by 1 MPI processor grid

mass 1 15.9994
mass 2 1.008

bond_style zero
bond_coeff 1 0.9574
angle_style zero
angle_coeff 1 104.52

region sphere1 sphere 0 0 0 $(v_radius-10) side in
region sphere1 sphere 0 0 0 90 side in
region sphere2 sphere 0 0 0 $(v_radius-20) side in
region sphere2 sphere 0 0 0 80 side in
create_atoms 0 random 5000 12345 sphere2 mol water 12345 overlap 2
Created 15000 atoms
  using lattice units in orthogonal box = (-100 -100 -100) to (100 100 100)
  create_atoms CPU = 1.131 seconds

thermo 1
thermo_style custom step time spcpu temp press etotal pe

fix wall all wall/region sphere1 harmonic 1000.0 0.0 2.5
fix_modify wall energy yes

pair_style lj/cut/coul/cut 8.0
pair_coeff 1 1 0.1521 3.1507
pair_coeff 2 2 0.0    1.0
velocity all create 300.0 12345
fix 1 all nvt temp 300 300 100.0
fix 2 all shake 0.001 10 10000 b 1 a 1
Finding SHAKE clusters ...
       0 = # of size 2 clusters
       0 = # of size 3 clusters
       0 = # of size 4 clusters
    5000 = # of frozen angles
  find clusters CPU = 0.003 seconds

#dump 2 all movie 10 wall.sphere.mpg type type size 1500 1500 fsaa yes
#dump_modify 2 pad 4 acolor * white/red/green/blue/aqua/magenta

run             100
Generated 1 of 1 mixed pair_coeff terms from geometric mixing rule
Neighbor list info ...
  update: every = 1 steps, delay = 0 steps, check = yes
  max neighbors/atom: 2000, page size: 100000
  master list distance cutoff = 10
  ghost atom cutoff = 10
  binsize = 5, bins = 40 40 40
  1 neighbor lists, perpetual/occasional/extra = 1 0 0
  (1) pair lj/cut/coul/cut, perpetual
      attributes: half, newton on
      pair build: half/bin/newton
      stencil: half/bin/3d
      bin: standard
SHAKE stats (type/ave/delta/count) on step 0
Bond:   1   0.957198  2.4758e-14     10000
Angle:  1   104.52    2.00373e-12     5000
Per MPI rank memory allocation (min/avg/max) = 9.102 | 9.102 | 9.102 Mbytes
   Step          Time          S/CPU           Temp          Press          TotEng         PotEng    
         0   0              0              450.015        79.867643      13141.549     -271.20213    
         1   1              335.63613      303.43295      68.646313      8744.2031     -299.6523     
         2   2              355.13835      308.04079      65.186898      8828.276      -352.91675    
         3   3              364.11819      314.11119      60.864402      8905.5195     -456.60223    
         4   4              365.66574      320.74581      56.685776      9113.5896     -446.27776    
         5   5              362.66811      327.46082      51.419841      8802.4361     -957.57299    
         6   6              362.42048      334.07472      46.519011      8491.2179     -1465.9192    
         7   7              359.71158      340.54273      43.84211       8814.9548     -1334.962     
         8   8              361.79123      346.89422      41.125329      9022.6852     -1316.5385    
         9   9              361.45711      353.19304      40.118398      9720.9257     -806.03517    
        10   10             353.9496       359.46708      37.725193      9863.142      -850.81733    
        11   11             361.73875      365.71771      34.890511      9802.5805     -1097.6796    
        12   12             361.65881      371.94114      32.686219      9907.549      -1178.2013    
        13   13             358.31185      378.12024      30.689623      10026.358     -1243.5613    
        14   14             359.43813      384.22138      26.620278      9400.8454     -2050.9189    
        15   15             363.42478      390.21752      24.581438      9438.6598     -2191.8201    
        16   16             363.12073      396.0476       22.320434      9360.384      -2443.8621    
        17   17             117.70184      401.63714      20.179206      9274.0425     -2696.8005    
        18   18             358.81403      406.98309      18.68377       9345.6744     -2784.5052    
        19   19             362.55752      412.0787       17.28132       9430.823      -2851.2321    
        20   20             363.17744      416.9047       15.159221      9233.7996     -3192.0949    
        21   21             363.99732      421.44584      12.194841      8711.0449     -3850.1989    
        22   22             360.67086      425.66995      11.660688      8974.1216     -3713.0223    
        23   23             357.65558      429.57237      10.717968      9055.9767     -3747.4794    
        24   24             361.14851      433.15581      9.7390209      9093.9631     -3816.2977    
        25   25             117.78046      436.43128      7.9939348      8842.2751     -4165.6114    
        26   26             359.39421      439.40977      8.6811298      9391.0447     -3705.6161    
        27   27             357.31118      442.10081      9.3510602      9896.501      -3280.3666    
        28   28             359.68428      444.49451      8.9182722      9960.8462     -3287.3658    
        29   29             363.78373      446.58151      8.9962713      10191.987     -3118.4288    
        30   30             363.37064      448.39997      8.3015007      10126.202     -3238.4131    
        31   31             360.96822      449.97601      8.7708629      10435.865     -2975.724     
        32   32             364.07166      451.32657      8.6590831      10529.341     -2922.501     
        33   33             117.79004      452.46589      8.0777272      10427.901     -3057.8988    
        34   34             360.72173      453.39452      8.3050779      10600.596     -2912.8822    
        35   35             361.88432      454.1353       7.7706693      10499.5       -3036.0567    
        36   36             365.35379      454.72689      7.8517219      10578.889     -2974.3003    
        37   37             359.70511      455.19838      7.3839859      10477.786     -3089.4566    
        38   38             356.99165      455.5786       6.7445132      10283.477     -3295.0972    
        39   39             362.26923      455.87515      6.5592354      10225.724     -3361.6894    
        40   40             361.57891      456.07995      7.4682515      10557.745     -3035.7729    
        41   41             361.98152      456.20823      8.0993501      10774.188     -2823.1528    
        42   42             360.71002      456.25671      7.9065955      10731.075     -2867.7105    
        43   43             117.5783       456.2228       9.2168205      11185.361     -2412.4141    
        44   44             360.71379      456.12675      9.702058       11343.605     -2251.3071    
        45   45             363.10227      455.99511      9.2833973      11184.264     -2406.7244    
        46   46             362.49286      455.84363      9.678281       11305.965     -2280.5088    
        47   47             356.39506      455.68029      9.5202313      11225.181     -2356.4249    
        48   48             358.12796      455.52897      9.6560211      11274.546     -2302.5493    
        49   49             358.38749      455.38377      9.8728979      11359.103     -2213.6653    
        50   50             357.90955      455.22474      9.3398489      11154.546     -2413.4816    
        51   51             362.36794      455.03002      10.107838      11390.124     -2172.0999    
        52   52             361.5763       454.83277      9.8503914      11300.408     -2255.9375    
        53   53             363.09028      454.62858      11.203976      11759.413     -1790.8463    
        54   54             117.17771      454.38119      10.505516      11474.379     -2068.5066    
        55   55             358.12784      454.10213      11.443017      11773.692     -1760.876     
        56   56             359.19631      453.80819      10.126357      11293.235     -2232.572     
        57   57             358.84378      453.51329      10.229215      11310.784     -2206.2334    
        58   58             356.13182      453.20953      9.2134033      10960.092     -2547.8723    
        59   59             360.8782       452.93672      10.237601      11287.662     -2212.1708    
        60   60             362.64312      452.71396      9.7037189      11103.08      -2390.114     
        61   61             362.09175      452.49873      9.3652907      10982.425     -2504.3537    
        62   62             363.32298      452.25532      8.9963403      10840.706     -2638.8175    
        63   63             355.59766      451.98242      9.7039785      11102.944     -2368.4463    
        64   64             115.5466       451.69826      8.7023279      10758.78      -2704.1411    
        65   65             359.37354      451.4282       9.8667527      11150.183     -2304.6884    
        66   66             352.83076      451.14152      9.8548224      11145.328     -2300.9986    
        67   67             358.11129      450.81913      9.5977155      11024.908     -2411.8101    
        68   68             363.49097      450.51045      9.83651        11070.552     -2356.966     
        69   69             363.24353      450.2338       9.9133257      11079.328     -2339.9439    
        70   70             362.19037      449.97654      10.042476      11095.466     -2316.139     
        71   71             360.8312       449.73892      9.3940552      10844.404     -2560.1186    
        72   72             361.16416      449.50867      10.59011       11243.199     -2154.4611    
        73   73             355.69657      449.27185      11.826187      11648.798     -1741.8035    
        74   74             359.4473       449.05089      12.406169      11809.13      -1574.8858    
        75   75             363.36787      448.87877      11.934073      11608.672     -1770.214     
        76   76             116.40461      448.7517       10.809277      11213.054     -2162.0436    
        77   77             348.65024      448.64445      11.169062      11322.361     -2049.5404    
        78   78             353.49941      448.52164      10.772629      11157.064     -2211.1776    
        79   79             359.63254      448.3917       11.476558      11352.916     -2011.4529    
        80   80             362.0865       448.28864      10.542051      10993.165     -2368.1317    
        81   81             359.02195      448.18574      10.432677      10914.58      -2443.6493    
        82   82             358.59105      448.02849      10.692394      10943.978     -2409.565     
        83   83             354.70301      447.79424      10.385972      10757.104     -2589.4575    
        84   84             356.58607      447.50079      9.8958172      10512.645     -2825.1692    
        85   85             363.04005      447.16109      10.353483      10628.756     -2698.9334    
        86   86             361.19038      446.78546      11.065164      10831.364     -2485.1303    
        87   87             115.19905      446.40635      12.697935      11329.757     -1975.4381    
        88   88             354.13787      446.04023      12.326562      11128.237     -2166.0457    
        89   89             362.24036      445.65092      11.234189      10681.342     -2601.3366    
        90   90             360.03458      445.22929      12.214479      10920.256     -2349.8562    
        91   91             354.59333      444.79766      11.498939      10596.031     -2661.2166    
        92   92             359.18985      444.35521      11.759114      10617.948     -2626.1124    
        93   93             354.93881      443.92612      13.440315      11116.316     -2114.9551    
        94   94             358.27308      443.51522      13.399335      11000.954     -2218.0701    
        95   95             361.79005      443.12425      12.764044      10698.077     -2509.2946    
        96   96             360.16451      442.78382      14.131106      11065.998     -2131.2263    
        97   97             115.61553      442.48332      13.951589      10914.459     -2273.8096    
        98   98             358.75212      442.18663      14.866451      11174.381     -2005.0447    
        99   99             359.31918      441.90468      15.176092      11181.484     -1989.5374    
       100   100            360.92653      441.69216      16.370699      11513.89      -1650.7976    
Loop time of 0.330059 on 1 procs for 100 steps with 15000 atoms

Performance: 26.177 ns/day, 0.917 hours/ns, 302.977 timesteps/s, 4.545 Matom-step/s
99.6% CPU use with 1 MPI tasks x 1 OpenMP threads

MPI task timing breakdown:
Section |  min time  |  avg time  |  max time  |%varavg| %total
---------------------------------------------------------------
Pair    | 0.19423    | 0.19423    | 0.19423    |   0.0 | 58.85
Bond    | 1.7424e-05 | 1.7424e-05 | 1.7424e-05 |   0.0 |  0.01
Neigh   | 0.049641   | 0.049641   | 0.049641   |   0.0 | 15.04
Comm    | 0.00084439 | 0.00084439 | 0.00084439 |   0.0 |  0.26
Output  | 0.004322   | 0.004322   | 0.004322   |   0.0 |  1.31
Modify  | 0.078628   | 0.078628   | 0.078628   |   0.0 | 23.82
Other   |            | 0.00238    |            |       |  0.72

Nlocal:          15000 ave       15000 max       15000 min
Histogram: 1 0 0 0 0 0 0 0 0 0
Nghost:              0 ave           0 max           0 min
Histogram: 1 0 0 0 0 0 0 0 0 0
Neighs:         199209 ave      199209 max      199209 min
Histogram: 1 0 0 0 0 0 0 0 0 0

Total # of neighbors = 199209
Ave neighs/atom = 13.2806
Ave special neighs/atom = 2
Neighbor list builds = 9
Dangerous builds = 0
Total wall time: 0:00:01
