LAMMPS (4 Jul 2026 - Development - patch_4Jul2026-848-gd03be1b44b)
  using 1 OpenMP thread(s) per MPI task

units real

molecule water tip3p.mol
Read molecule template water:
# Water molecule. TIP3P geometry
  1 molecules
  0 fragments
  0 bodies
  3 atoms with max type 2
  2 bonds with max type 1
  1 angles with max type 1
  0 dihedrals with max type 0
  0 impropers with max type 0
atom_style     full

variable        radius equal 100.0
region          box block $(-v_radius) $(v_radius) $(-v_radius) $(v_radius) $(-v_radius) $(v_radius)
region          box block -100 $(v_radius) $(-v_radius) $(v_radius) $(-v_radius) $(v_radius)
region          box block -100 100 $(-v_radius) $(v_radius) $(-v_radius) $(v_radius)
region          box block -100 100 -100 $(v_radius) $(-v_radius) $(v_radius)
region          box block -100 100 -100 100 $(-v_radius) $(v_radius)
region          box block -100 100 -100 100 -100 $(v_radius)
region          box block -100 100 -100 100 -100 100
create_box 2 box bond/types 1 angle/types 1             extra/bond/per/atom 2 extra/angle/per/atom 1 extra/special/per/atom 2
Created orthogonal box = (-100 -100 -100) to (100 100 100)
  1 by 2 by 2 MPI processor grid

mass 1 15.9994
mass 2 1.008

bond_style zero
bond_coeff 1 0.9574
angle_style zero
angle_coeff 1 104.52

region block1 block -80 80 -80 80 -80 80
region block2 block -70 70 -70 70 -70 70
create_atoms 0 random 5000 12345 block2 mol water 12345 overlap 2
Created 15000 atoms
  using lattice units in orthogonal box = (-100 -100 -100) to (100 100 100)
  create_atoms CPU = 0.319 seconds

thermo 1
thermo_style custom step time spcpu temp press etotal pe

fix wall all wall/region block1 harmonic 1000.0 0.0 2.5
fix_modify wall energy yes

pair_style lj/cut/coul/cut 8.0
pair_coeff 1 1 0.1521 3.1507
pair_coeff 2 2 0.0    1.0
velocity all create 300.0 12345
fix 1 all nvt temp 300 300 100.0
fix 2 all shake 0.001 10 10000 b 1 a 1
Finding SHAKE clusters ...
       0 = # of size 2 clusters
       0 = # of size 3 clusters
       0 = # of size 4 clusters
    5000 = # of frozen angles
  find clusters CPU = 0.001 seconds

#dump 2 all movie 10 wall.block.mpg type type size 1500 1500 fsaa yes
#dump_modify 2 pad 4 acolor * white/red/green/blue/aqua/magenta

run             100
Generated 1 of 1 mixed pair_coeff terms from geometric mixing rule
Neighbor list info ...
  update: every = 1 steps, delay = 0 steps, check = yes
  max neighbors/atom: 2000, page size: 100000
  master list distance cutoff = 10
  ghost atom cutoff = 10
  binsize = 5, bins = 40 40 40
  1 neighbor lists, perpetual/occasional/extra = 1 0 0
  (1) pair lj/cut/coul/cut, perpetual
      attributes: half, newton on
      pair build: half/bin/newton
      stencil: half/bin/3d
      bin: standard
SHAKE stats (type/ave/delta/count) on step 0
Bond:   1   0.957198  2.68674e-14    10000
Angle:  1   104.52    2.25953e-12     5000
Per MPI rank memory allocation (min/avg/max) = 7.902 | 7.905 | 7.908 Mbytes
   Step          Time          S/CPU           Temp          Press          TotEng         PotEng    
         0   0              0              450.015        104.11158      15345.637      1932.886     
         1   1              1512.8982      304.82674      69.632153      11115.3        2029.9023    
         2   2              1552.6456      308.09927      66.654381      11041.064      1858.1284    
         3   3              1600.63        312.79571      63.085196      11075.1        1752.1868    
         4   4              1506.5482      318.16504      58.448791      10835.665      1352.7176    
         5   5              1581.3552      323.73591      55.040796      11008.056      1359.0681    
         6   6              1654.1065      329.2987       52.363345      11310.27       1495.4826    
         7   7              1654.1065      334.76349      48.702643      11150.547      1172.8808    
         8   8              1691.2432      340.10067      45.399262      11019.202      882.46097    
         9   9              1675.8531      345.33717      41.164261      10462.007      169.19155    
        10   10             1695.4411      350.48488      37.953007      10185.669     -260.57512    
        11   11             1575.0413      355.52961      36.568344      10507.937     -88.665041    
        12   12             1689.3547      360.46518      33.768472      10295.945     -447.76315    
        13   13             1721.2267      365.30052      32.423365      10544.867     -342.95924    
        14   14             1491.1308      370.02899      30.761929      10627.451     -401.30723    
        15   15             1683.6264      374.64104      28.559126      10493.368     -672.85283    
        16   16             482.11475      379.1177       26.967284      10517.551     -782.09749    
        17   17             1597.3982      383.42709      25.560221      10591.171     -836.91894    
        18   18             1631.6381      387.54967      23.469134      10353.906     -1197.0581    
        19   19             1660.9613      391.45527      22.424939      10476.632     -1190.7391    
        20   20             1670.4112      395.1485       21.472287      10577.303     -1200.1457    
        21   21             1668.7916      398.62025      20.620548      10691.658     -1189.2664    
        22   22             1698.0062      401.84201      19.656296      10747.396     -1229.5529    
        23   23             1689.9         404.82024      18.159267      10571.645     -1494.0701    
        24   24             1688.7841      407.54156      16.868557      10445.88      -1700.9449    
        25   25             1722.4452      410.00956      15.723315      10297.937     -1922.4474    
        26   26             1689.6972      412.23407      13.828623      9882.0465     -2404.6394    
        27   27             496.01108      414.20913      13.771212      10071.985     -2273.5676    
        28   28             1592.7346      415.95309      12.795805      9908.1226     -2489.4091    
        29   29             1646.8469      417.48501      11.601392      9642.9086     -2800.2821    
        30   30             1670.8884      418.81429      12.032759      9933.2673     -2549.5429    
        31   31             1710.665       419.96038      12.397433      10173.072     -2343.8974    
        32   32             1645.5434      420.94797      12.466827      10268.29      -2278.1146    
        33   33             1736.3493      421.81338      11.926645      10168.734     -2403.4644    
        34   34             1704.1523      422.59134      10.91108       9874.2255     -2721.1599    
        35   35             1707.0964      423.28657      10.240512      9710.0916     -2906.0153    
        36   36             1727.9036      423.90539      10.191003      9733.9272     -2900.6236    
        37   37             472.38262      424.46061      10.021194      9728.7737     -2922.3254    
        38   38             1447.134       424.92227      10.8151        10012.581     -2652.2781    
        39   39             1605.2885      425.28825      10.991924      10079.924     -2595.8431    
        40   40             1655.8347      425.57791      10.611556      9959.7957     -2724.6047    
        41   41             1584.7182      425.8021       10.814364      10034.576     -2656.5066    
        42   42             1620.1678      425.99856      11.052732      10102.481     -2594.4573    
        43   43             1691.1031      426.16964      11.731479      10357.608     -2344.4289    
        44   44             1698.6696      426.30666      11.442621      10237.648     -2468.4725    
        45   45             1725.8429      426.40824      12.322975      10528.787     -2180.3613    
        46   46             1703.2786      426.47737      12.546595      10617.312     -2093.8965    
        47   47             498.29657      426.50032      12.294448      10525.308     -2186.5848    
        48   48             1611.0661      426.45813      12.200337      10490.738     -2219.8975    
        49   49             1626.3733      426.34736      12.551         10586.198     -2121.136     
        50   50             1684.1935      426.17558      11.017419      10031.762     -2670.4523    
        51   51             1595.7667      425.96503      10.919909      9982.3784     -2713.5602    
        52   52             1699.6252      425.72247      10.361701      9745.1393     -2943.5699    
        53   53             1716.7559      425.445        10.876982      9882.7966     -2797.6425    
        54   54             1700.1483      425.13939      11.700891      10150.008     -2521.3224    
        55   55             1636.1551      424.81949      10.696181      9789.363      -2872.4327    
        56   56             1713.8989      424.48364      10.478398      9695.6507     -2956.1349    
        57   57             502.55171      424.15211      10.552957      9688.5547     -2953.3496    
        58   58             1601.812       423.83017      10.526086      9637.6563     -2994.6525    
        59   59             1532.3604      423.489        11.029332      9773.8419     -2848.2984    
        60   60             1546.0084      423.14192      10.642094      9621.6104     -2990.1852    
        61   61             1634.3341      422.81589      11.542691      9873.3036     -2728.7746    
        62   62             1580.7053      422.5019       10.993923      9648.3596     -2944.36      
        63   63             1605.34        422.2088       10.724767      9495.5295     -3088.4542    
        64   64             1659.4123      421.98049      10.624765      9458.0993     -3119.0796    
        65   65             1686.5027      421.8293       10.586914      9435.1537     -3137.519     
        66   66             1699.4808      421.73289      10.507071      9419.2665     -3150.5329    
        67   67             1717.8795      421.68155      10.256633      9302.488      -3265.781     
        68   68             496.29466      421.67418      10.142595      9228.5846     -3339.4647    
        69   69             1583.8623      421.69362      10.229661      9262.9164     -3305.7125    
        70   70             1631.316       421.74231      11.950673      9860.2438     -2709.8363    
        71   71             1671.6705      421.80543      12.689029      10110.822     -2461.1389    
        72   72             1671.4777      421.85458      11.898771      9827.2028     -2746.2234    
        73   73             1699.9142      421.86923      11.33798       9644.7978     -2929.0652    
        74   74             1684.9342      421.86286      10.211695      9231.3319     -3342.3411    
        75   75             1687.7267      421.8583       10.725762      9395.0427     -3178.4943    
        76   76             1697.4009      421.82671      10.132313      9183.2968     -3389.2989    
        77   77             1696.3327      421.75329      10.240387      9210.1612     -3360.2461    
        78   78             1700.3766      421.64996      10.226684      9193.0689     -3374.2587    
        79   79             1702.1479      421.54316      9.7460967      8995.7824     -3568.362     
        80   80             1726.5581      421.45571      11.006968      9390.2101     -3171.3276    
        81   81             498.08263      421.35868      9.9712238      9019.2605     -3539.3854    
        82   82             1565.4303      421.23901      9.926378       8980.4231     -3574.656     
        83   83             1639.8685      421.08085      10.640423      9216.0446     -3334.3205    
        84   84             1624.7297      420.86817      9.0978191      8650.2559     -3893.7702    
        85   85             1578.1533      420.62848      10.355731      9058.6554     -3478.2269    
        86   86             1573.8266      420.38227      10.308231      9019.4016     -3510.1423    
        87   87             1569.8883      420.13583      9.8090791      8828.4977     -3693.701     
        88   88             1577.307       419.90129      9.3196205      8601.6721     -3913.5361    
        89   89             1613.8273      419.67426      10.944497      9110.7532     -3397.6883    
        90   90             1685.2749      419.42553      12.19765       9490.3707     -3010.6573    
        91   91             500.07676      419.14155      12.643447      9602.6829     -2889.8812    
        92   92             1550.1881      418.84985      11.200992      9058.4084     -3425.4613    
        93   93             1654.2159      418.57905      11.977806      9300.1661     -3175.6326    
        94   94             1670.2438      418.33074      12.164348      9311.3978     -3157.0001    
        95   95             1692.5629      418.09266      11.425191      8997.3583     -3463.9436    
        96   96             1698.5571      417.84658      10.999437      8799.0841     -3654.8832    
        97   97             1687.1259      417.59892      11.015767      8759.4198     -3687.1659    
        98   98             1714.9305      417.3572       10.340361      8467.2514     -3972.1298    
        99   99             1686.4146      417.12725      10.803292      8578.9121     -3853.6155    
       100   100            1723.2466      416.89129      10.41428       8395.1049     -4030.3899    
Loop time of 0.072078 on 4 procs for 100 steps with 15000 atoms

Performance: 119.870 ns/day, 0.200 hours/ns, 1387.385 timesteps/s, 20.811 Matom-step/s
99.0% CPU use with 4 MPI tasks x 1 OpenMP threads

MPI task timing breakdown:
Section |  min time  |  avg time  |  max time  |%varavg| %total
---------------------------------------------------------------
Pair    | 0.034657   | 0.035626   | 0.038045   |   0.7 | 49.43
Bond    | 1.5647e-05 | 1.7727e-05 | 2.0861e-05 |   0.0 |  0.02
Neigh   | 0.010229   | 0.010243   | 0.010262   |   0.0 | 14.21
Comm    | 0.0018699  | 0.0044333  | 0.0055383  |   2.2 |  6.15
Output  | 0.0014349  | 0.0014899  | 0.0016456  |   0.2 |  2.07
Modify  | 0.019371   | 0.019476   | 0.019648   |   0.1 | 27.02
Other   |            | 0.0007918  |            |       |  1.10

Nlocal:           3750 ave        3817 max        3672 min
Histogram: 1 0 0 1 0 0 0 0 1 1
Nghost:        1110.75 ave        1143 max        1069 min
Histogram: 1 0 0 1 0 0 0 0 0 2
Neighs:        38355.8 ave       41021 max       37202 min
Histogram: 2 0 1 0 0 0 0 0 0 1

Total # of neighbors = 153423
Ave neighs/atom = 10.2282
Ave special neighs/atom = 2
Neighbor list builds = 8
Dangerous builds = 0
Total wall time: 0:00:00
