LAMMPS (30 Sep 2026 - Development - patch_30Sep2026-78-g929d4f651d)

units real

molecule water tip3p.mol
Read molecule template water:
# Water molecule. TIP3P geometry
  1 molecules
  0 fragments
  0 bodies
  3 atoms with max type 2
  2 bonds with max type 1
  1 angles with max type 1
  0 dihedrals with max type 0
  0 impropers with max type 0
atom_style     full

variable        radius equal 100.0
region          box block $(-v_radius) $(v_radius) $(-v_radius) $(v_radius) $(-v_radius) $(v_radius)
region          box block -100 $(v_radius) $(-v_radius) $(v_radius) $(-v_radius) $(v_radius)
region          box block -100 100 $(-v_radius) $(v_radius) $(-v_radius) $(v_radius)
region          box block -100 100 -100 $(v_radius) $(-v_radius) $(v_radius)
region          box block -100 100 -100 100 $(-v_radius) $(v_radius)
region          box block -100 100 -100 100 -100 $(v_radius)
region          box block -100 100 -100 100 -100 100
create_box 2 box bond/types 1 angle/types 1             extra/bond/per/atom 2 extra/angle/per/atom 1 extra/special/per/atom 2
Created orthogonal box = (-100 -100 -100) to (100 100 100)
  1 by 1 by 1 MPI processor grid

mass 1 15.9994
mass 2 1.008

bond_style zero
bond_coeff 1 0.9572
angle_style zero
angle_coeff 1 104.52

region block1 block -80 80 -80 80 -80 80
region block2 block -70 70 -70 70 -70 70
create_atoms 0 random 5000 12345 block2 mol water 12345 overlap 2
Created 15000 atoms
  using lattice units in orthogonal box = (-100 -100 -100) to (100 100 100)
  create_atoms CPU = 1.169 seconds

thermo 1
thermo_style custom step time spcpu temp press etotal pe

fix wall all wall/region block1 harmonic 1000.0 0.0 2.5
fix_modify wall energy yes

pair_style lj/cut/coul/cut 8.0
pair_coeff 1 1 0.1521 3.1507
pair_coeff 2 2 0.0    1.0
velocity all create 300.0 12345
fix 1 all nvt temp 300 300 100.0
fix 2 all shake 0.001 10 10000 b 1 a 1
Finding SHAKE clusters ...
       0 = # of size 2 clusters
       0 = # of size 3 clusters
       0 = # of size 4 clusters
    5000 = # of frozen angles
  find clusters CPU = 0.003 seconds

#dump 2 all movie 10 wall.block.mpg type type size 1500 1500 fsaa yes
#dump_modify 2 pad 4 acolor * white/red/green/blue/aqua/magenta

run             100
Generated 1 of 1 mixed pair_coeff terms from geometric mixing rule
Neighbor list info ...
  update: every = 1 steps, delay = 0 steps, check = yes
  max neighbors/atom: 2000, page size: 100000
  master list distance cutoff = 10
  ghost atom cutoff = 10
  binsize = 5, bins = 40 40 40
  1 neighbor lists, perpetual/occasional/extra = 1 0 0
  (1) pair lj/cut/coul/cut, perpetual
      attributes: half, newton on
      pair build: half/bin/newton
      stencil: half/bin/3d
      bin: standard
SHAKE stats (type/ave/delta/count) on step 0
Bond:   1   0.957198  2.68674e-14    10000
Angle:  1   104.52    2.25953e-12     5000
Per MPI rank memory allocation (min/avg/max) = 8.721 | 8.721 | 8.721 Mbytes
   Step          Time          S/CPU           Temp          Press          TotEng         PotEng    
         0   0              0              450.015        89.522933      15345.637      1932.886     
         1   1              419.9431       300.06653      70.183059      11089.246      2145.7271    
         2   2              418.24344      303.16879      67.298051      10986.237      1950.2547    
         3   3              435.64253      307.80301      64.062252      11121.539      1947.4335    
         4   4              438.18636      313.17574      60.065285      11112.838      1778.5974    
         5   5              361.90514      318.75905      56.790918      11321.052      1820.4001    
         6   6              431.18038      324.32583      52.735793      11139.724      1473.1542    
         7   7              434.72609      329.79517      49.791219      11218.279      1388.6949    
         8   8              417.38979      335.17198      47.935859      11599.94       1610.0988    
         9   9              437.07153      340.47473      44.987045      11504.875      1356.9851    
        10   10             440.38449      345.70996      41.914311      11301.268      997.34131    
        11   11             432.53699      350.9028       38.424896      10887.764      429.06372    
        12   12             429.07995      356.0547       36.473109      10979.132      366.879      
        13   13             436.8096       361.13191      33.824752      10774.328      10.748766    
        14   14             430.40113      366.10765      32.113646      10857.369     -54.513025    
        15   15             428.16706      370.97444      30.112139      10795.777     -261.16083    
        16   16             128.30903      375.69803      28.760163      10906.871     -290.85344    
        17   17             431.7081       380.23155      26.56668       10699.596     -633.2512     
        18   18             434.40053      384.56828      26.028051      11047.491     -414.61246    
        19   19             431.06124      388.70387      24.894145      11128.055     -457.31007    
        20   20             434.77146      392.61215      23.634291      11128.119     -573.73327    
        21   21             438.3652       396.28809      23.036843      11300.56      -510.85374    
        22   22             438.18444      399.71652      21.916731      11277.898     -635.70108    
        23   23             431.67642      402.88758      20.527419      11138.738     -869.3748     
        24   24             437.53891      405.79093      19.602349      11099.859     -994.78868    
        25   25             436.70811      408.41841      17.964482      10786.097     -1386.8623    
        26   26             432.97784      410.77601      18.437317      11200.755     -1042.4729    
        27   27             134.27175      412.85053      17.965061      11239.782     -1065.2777    
        28   28             423.1264       414.65354      16.045288      10737.281     -1621.5169    
        29   29             430.48858      416.22662      15.005349      10537.4       -1868.2843    
        30   30             432.31578      417.58413      14.667934      10546.598     -1899.5466    
        31   31             438.28642      418.73186      15.21527       10851.226     -1629.1269    
        32   32             430.73371      419.70608      15.476261      11054.702     -1454.6876    
        33   33             432.87083      420.50708      14.999552      10955.175     -1578.0886    
        34   34             438.23437      421.15033      14.263974      10733.271     -1819.1645    
        35   35             439.09028      421.67159      14.165328      10749.497     -1818.4746    
        36   36             132.27377      422.06583      13.762051      10628.614     -1951.1084    
        37   37             403.47977      422.36675      12.675456      10248.39      -2340.3014    
        38   38             424.91877      422.60811      13.274834      10452.621     -2143.264     
        39   39             437.34909      422.78521      14.013339      10700.293     -1900.8704    
        40   40             428.75579      422.90774      12.442305      10139.88      -2464.9362    
        41   41             427.84409      422.99532      12.723762      10207.395     -2400.031     
        42   42             431.65201      423.0461       13.797678      10548.933     -2060.007     
        43   43             434.6371       423.08531      14.091999      10623.339     -1986.7693    
        44   44             417.93335      423.13933      13.682207      10474.28      -2137.4386    
        45   45             129.86311      423.18746      12.54409       10051.152     -2562.0011    
        46   46             429.03779      423.21941      12.258646      9945.4164     -2668.6887    
        47   47             426.62243      423.24809      12.529917      10041.875     -2573.0845    
        48   48             432.9516       423.28425      11.47378       9682.7579     -2933.2797    
        49   49             423.16758      423.31192      12.714863      10096.089     -2520.7728    
        50   50             428.81463      423.30563      12.047408      9859.5757     -2757.0993    
        51   51             436.44661      423.27465      10.820816      9420.9648     -3194.7867    
        52   52             430.06739      423.2343       10.055675      9148.0912     -3466.4578    
        53   53             438.10362      423.21032      9.925356       9098.6975     -3515.1366    
        54   54             430.20634      423.21024      9.0108187      8760.305      -3853.527     
        55   55             119.85988      423.20279      9.8091208      9056.5603     -3557.0496    
        56   56             436.0346       423.19647      10.153731      9186.8746     -3426.5468    
        57   57             434.57836      423.18737      10.570021      9324.127      -3289.0233    
        58   58             431.51976      423.16899      10.303028      9237.4943     -3375.1082    
        59   59             428.49418      423.15569      9.7745054      9070.9376     -3541.2685    
        60   60             422.5032       423.12654      9.6414134      9019.952      -3591.3852    
        61   61             408.54663      423.05161      10.220467      9221.3094     -3387.7944    
        62   62             425.85248      422.92675      12.783548      10086.635     -2518.7471    
        63   63             431.19711      422.76764      11.039654      9450.7922     -3149.8481    
        64   64             436.14509      422.56957      10.578927      9261.8175     -3332.9191    
        65   65             430.80441      422.35118      10.99213       9368.9727     -3219.2547    
        66   66             134.81057      422.13489      10.475099      9186.976      -3394.8049    
        67   67             400.44594      421.91524      10.722554      9249.9524     -3325.2818    
        68   68             424.87905      421.6754       10.217406      9039.1408     -3528.945     
        69   69             437.20549      421.39272      10.250364      9022.7356     -3536.9248    
        70   70             437.51594      421.0762       10.378626      9057.5657     -3492.6607    
        71   71             431.73046      420.75812      12.30128       9691.2801     -2849.466     
        72   72             414.01713      420.42065      11.822175      9501.6251     -3029.0626    
        73   73             406.94575      420.05062      11.896469      9485.3589     -3034.3001    
        74   74             428.45581      419.67478      12.707542      9735.8145     -2772.6426    
        75   75             438.04394      419.30245      13.203968      9849.1495     -2648.2101    
        76   76             438.5484       418.93706      12.575554      9601.6676     -2884.8015    
        77   77             134.63326      418.55801      11.837535      9303.7298     -3171.4419    
        78   78             419.4791       418.15938      10.864582      8933.4354     -3529.8549    
        79   79             425.26101      417.75923      11.338422      9046.748      -3404.6159    
        80   80             429.75079      417.37058      10.000785      8546.2192     -3893.5608    
        81   81             431.68946      416.97737      9.1997974      8211.6629     -4216.3975    
        82   82             428.12673      416.57976      8.5601141      7956.809      -4459.4007    
        83   83             431.90984      416.18158      9.1894863      8178.1926     -4226.149     
        84   84             429.75263      415.77206      9.1068447      8096.7721     -4295.3638    
        85   85             415.28325      415.35543      9.9905193      8353.908      -4025.8103    
        86   86             428.45195      414.93181      10.04709       8322.4906     -4044.6017    
        87   87             137.59969      414.5051       9.5429356      8110.7717     -4243.6025    
        88   88             434.08128      414.06296      10.24473       8310.3701     -4030.8259    
        89   89             427.07885      413.65054      10.667919      8430.3749     -3898.5291    
        90   90             420.78599      413.28031      11.097737      8542.9098     -3774.9592    
        91   91             426.83057      412.91356      11.632129      8713.6193     -3593.319     
        92   92             429.93777      412.56481      11.307527      8566.7112     -3729.8324    
        93   93             434.72591      412.24664      11.619685      8636.1936     -3650.867     
        94   94             434.95148      411.96041      12.242092      8806.9156     -3471.6137    
        95   95             433.16596      411.69417      11.781257      8602.2385     -3668.3555    
        96   96             430.73909      411.43806      12.131585      8693.3526     -3569.6081    
        97   97             136.58346      411.2158       12.275199      8726.8093     -3529.5268    
        98   98             435.18468      411.03929      12.903118      8918.7259     -3332.3495    
        99   99             437.78659      410.89177      13.000813      8908.9908     -3337.6876    
       100   100            433.02865      410.75774      12.85269       8833.7506     -3408.9331    
Loop time of 0.280506 on 1 procs for 100 steps with 15000 atoms

Performance: 30.802 ns/day, 0.779 hours/ns, 356.499 timesteps/s, 5.347 Matom-step/s
99.6% CPU use with 1 MPI tasks x no OpenMP threads

MPI task timing breakdown:
Section |  min time  |  avg time  |  max time  |%varavg| %total
---------------------------------------------------------------
Pair    | 0.15568    | 0.15568    | 0.15568    |   0.0 | 55.50
Bond    | 2.6597e-05 | 2.6597e-05 | 2.6597e-05 |   0.0 |  0.01
Neigh   | 0.044424   | 0.044424   | 0.044424   |   0.0 | 15.84
Comm    | 0.001045   | 0.001045   | 0.001045   |   0.0 |  0.37
Output  | 0.0044182  | 0.0044182  | 0.0044182  |   0.0 |  1.58
Modify  | 0.072103   | 0.072103   | 0.072103   |   0.0 | 25.70
Other   |            | 0.00281    |            |       |  1.00

Nlocal:          15000 ave       15000 max       15000 min
Histogram: 1 0 0 0 0 0 0 0 0 0
Nghost:              0 ave           0 max           0 min
Histogram: 1 0 0 0 0 0 0 0 0 0
Neighs:         153616 ave      153616 max      153616 min
Histogram: 1 0 0 0 0 0 0 0 0 0

Total # of neighbors = 153616
Ave neighs/atom = 10.241067
Ave special neighs/atom = 2
Neighbor list builds = 9
Dangerous builds = 0
Total wall time: 0:00:01
