LAMMPS (30 Sep 2026 - Development - patch_30Sep2026-78-g929d4f651d)

units real

molecule water tip3p.mol
Read molecule template water:
# Water molecule. TIP3P geometry
  1 molecules
  0 fragments
  0 bodies
  3 atoms with max type 2
  2 bonds with max type 1
  1 angles with max type 1
  0 dihedrals with max type 0
  0 impropers with max type 0
atom_style     full

variable        radius equal 100.0
region          box block $(-v_radius) $(v_radius) $(-v_radius) $(v_radius) $(-v_radius) $(v_radius)
region          box block -100 $(v_radius) $(-v_radius) $(v_radius) $(-v_radius) $(v_radius)
region          box block -100 100 $(-v_radius) $(v_radius) $(-v_radius) $(v_radius)
region          box block -100 100 -100 $(v_radius) $(-v_radius) $(v_radius)
region          box block -100 100 -100 100 $(-v_radius) $(v_radius)
region          box block -100 100 -100 100 -100 $(v_radius)
region          box block -100 100 -100 100 -100 100
create_box 2 box bond/types 1 angle/types 1             extra/bond/per/atom 2 extra/angle/per/atom 1 extra/special/per/atom 2
Created orthogonal box = (-100 -100 -100) to (100 100 100)
  1 by 2 by 2 MPI processor grid

mass 1 15.9994
mass 2 1.008

bond_style zero
bond_coeff 1 0.9572
angle_style zero
angle_coeff 1 104.52

region block1 block -80 80 -80 80 -80 80
region block2 block -70 70 -70 70 -70 70
create_atoms 0 random 5000 12345 block2 mol water 12345 overlap 2
Created 15000 atoms
  using lattice units in orthogonal box = (-100 -100 -100) to (100 100 100)
  create_atoms CPU = 0.347 seconds

thermo 1
thermo_style custom step time spcpu temp press etotal pe

fix wall all wall/region block1 harmonic 1000.0 0.0 2.5
fix_modify wall energy yes

pair_style lj/cut/coul/cut 8.0
pair_coeff 1 1 0.1521 3.1507
pair_coeff 2 2 0.0    1.0
velocity all create 300.0 12345
fix 1 all nvt temp 300 300 100.0
fix 2 all shake 0.001 10 10000 b 1 a 1
Finding SHAKE clusters ...
       0 = # of size 2 clusters
       0 = # of size 3 clusters
       0 = # of size 4 clusters
    5000 = # of frozen angles
  find clusters CPU = 0.001 seconds

#dump 2 all movie 10 wall.block.mpg type type size 1500 1500 fsaa yes
#dump_modify 2 pad 4 acolor * white/red/green/blue/aqua/magenta

run             100
Generated 1 of 1 mixed pair_coeff terms from geometric mixing rule
Neighbor list info ...
  update: every = 1 steps, delay = 0 steps, check = yes
  max neighbors/atom: 2000, page size: 100000
  master list distance cutoff = 10
  ghost atom cutoff = 10
  binsize = 5, bins = 40 40 40
  1 neighbor lists, perpetual/occasional/extra = 1 0 0
  (1) pair lj/cut/coul/cut, perpetual
      attributes: half, newton on
      pair build: half/bin/newton
      stencil: half/bin/3d
      bin: standard
SHAKE stats (type/ave/delta/count) on step 0
Bond:   1   0.957198  2.68674e-14    10000
Angle:  1   104.52    2.25953e-12     5000
Per MPI rank memory allocation (min/avg/max) = 7.902 | 7.905 | 7.908 Mbytes
   Step          Time          S/CPU           Temp          Press          TotEng         PotEng    
         0   0              0              450.015        104.1126       15345.637      1932.886     
         1   1              972.72858      304.82663      69.629159      11115.376      2029.9818    
         2   2              1142.3297      308.09918      66.626167      11033.946      1851.0129    
         3   3              1556.4009      312.79515      63.10207       11082.432      1759.5351    
         4   4              1542.6385      318.16238      58.491072      10850.184      1367.316     
         5   5              843.32818      323.73107      55.166919      11051.422      1402.5788    
         6   6              981.07602      329.29251      52.361764      11310.329      1495.7268    
         7   7              1572.6337      334.75597      48.770412      11172.263      1194.8215    
         8   8              1601.0887      340.09153      45.395135      11019.265      882.79575    
         9   9              1630.6218      345.32601      41.133518      10447.621      155.13835    
        10   10             1633.0237      350.47125      37.84919       10149.61      -296.2274     
        11   11             1373.3585      355.51208      36.518013      10486.266     -109.81422    
        12   12             1298.4433      360.44374      33.719016      10274.23      -468.8393     
        13   13             1468.5107      365.27698      32.388705      10530.377     -356.74706    
        14   14             1605.9845      370.00431      30.799831      10634.65      -393.37236    
        15   15             1404.8456      374.61518      28.63878       10515.035     -650.41547    
        16   16             379.28339      379.09046      26.974109      10517.585     -781.2512     
        17   17             1423.0743      383.39807      25.630705      10612.869     -814.35644    
        18   18             1560.2669      387.51802      23.513354      10368.359     -1181.6617    
        19   19             1604.4359      391.42127      22.471544      10491.077     -1175.2805    
        20   20             1672.7051      395.11324      21.498069      10584.54      -1191.8578    
        21   21             1699.6541      398.58313      20.619601      10691.663     -1188.1545    
        22   22             1687.0433      401.80287      19.687237      10754.604     -1221.1784    
        23   23             1674.4753      404.78058      18.180538      10578.882     -1485.6517    
        24   24             1699.3335      407.50125      16.892813      10453.155     -1692.4682    
        25   25             1702.7276      409.96803      15.897461      10355.743     -1863.4032    
        26   26             1719.9507      412.19218      13.856258      9889.3633     -2396.0739    
        27   27             507.4988       414.16862      13.843492      10093.818     -2250.5275    
        28   28             1608.6507      415.91393      12.806222      9908.3862     -2487.9782    
        29   29             1653.6141      417.44682      11.65646       9657.6852     -2784.3672    
        30   30             1672.4813      418.77733      11.983257      9912.022      -2569.6865    
        31   31             1647.0639      419.92545      12.468115      10195.231     -2320.6972    
        32   32             1704.0943      420.91395      12.393178      10239.959     -2305.4311    
        33   33             1643.2666      421.77947      11.967031      10176.539     -2394.6483    
        34   34             1707.6211      422.55715      10.863672      9853.1774     -2741.189     
        35   35             1688.0971      423.25113      10.178692      9681.8167     -2933.2339    
        36   36             1595.2042      423.86898      10.204692      9734.5266     -2898.9391    
        37   37             441.54964      424.42291      9.9535139      9700.4884     -2949.4873    
        38   38             1483.9459      424.88385      10.958732      10056.475     -2607.239     
        39   39             1640.7025      425.24768      11.002544      10080.471     -2594.0875    
        40   40             1627.6439      425.5341       10.559777      9938.6021     -2744.4926    
        41   41             1688.8697      425.75625      10.786112      10020.581     -2669.1349    
        42   42             1690.4685      425.95255      11.084807      10110.162     -2585.4049    
        43   43             1695.2371      426.12328      11.767046      10365.315     -2335.3408    
        44   44             1716.1077      426.25901      11.430935      10230.906     -2473.7954    
        45   45             1702.6377      426.36003      12.305329      10514.811     -2192.9005    
        46   46             1708.4409      426.4286       12.430998      10574.485     -2135.2708    
        47   47             497.35037      426.45052      12.489913      10590.753     -2119.6558    
        48   48             1580.8527      426.40893      12.336559      10534.58      -2174.5893    
        49   49             1642.349       426.29871      12.493235      10557.883     -2148.0009    
        50   50             1674.1922      426.12464      11.14116       10068.358     -2632.3378    
        51   51             1681.2741      425.91126      10.918802      9975.6258     -2718.7104    
        52   52             1605.0025      425.66604      10.250807      9702.2364     -2984.791     
        53   53             1677.4302      425.3858       10.929795      9897.66       -2781.0147    
        54   54             1690.4427      425.07991      11.634053      10121.548     -2548.01      
        55   55             1670.8019      424.76048      10.628485      9760.9535     -2899.0836    
        56   56             1683.5981      424.42261      10.353495      9645.5676     -3004.3992    
        57   57             463.2658       424.09068      10.513423      9667.3279     -2972.7455    
        58   58             1495.8013      423.76928      10.569801      9645.3139     -2985.1801    
        59   59             1441.5516      423.42527      11.137283      9810.3338     -2809.907     
        60   60             1419.7144      423.07534      10.563691      9585.7828     -3024.0284    
        61   61             1503.122       422.74453      11.70078       9923.935      -2676.0162    
        62   62             1561.0975      422.42505      11.178313      9706.054      -2884.3753    
        63   63             1629.0784      422.13044      10.662763      9466.6154     -3115.0328    
        64   64             1651.015       421.90169      10.559932      9429.2101     -3145.6204    
        65   65             1676.4431      421.74713      10.385523      9362.8831     -3207.3405    
        66   66             1689.4118      421.64724      10.323497      9346.9375     -3220.3089    
        67   67             1697.4845      421.59428      10.189426      9266.1652     -3299.5028    
        68   68             500.43012      421.58054      10.104179      9213.8031     -3351.4555    
        69   69             1564.228       421.59846      10.379026      9305.7493     -3260.0434    
        70   70             1616.2844      421.65146      11.903928      9838.1295     -2729.2428    
        71   71             1663.8381      421.71641      12.678144      10103.145     -2466.1631    
        72   72             1666.2584      421.76488      11.867734      9812.3367     -2758.4159    
        73   73             1684.849       421.77752      11.213041      9593.7732     -2977.3563    
        74   74             1664.8936      421.76981      10.029491      9165.8023     -3405.0975    
        75   75             1693.0214      421.76466      10.545153      9322.195      -3248.5513    
        76   76             1642.5378      421.73685      10.389501      9269.4186     -3300.4985    
        77   77             1682.2075      421.66929      10.439168      9274.7956     -3293.108     
        78   78             1698.6407      421.57011      10.198576      9178.4135     -3386.5342    
        79   79             1673.0438      421.46556      9.7328023      8988.3578     -3573.4737    
        80   80             1568.9006      421.38361      10.878592      9346.7832     -3212.6057    
        81   81             405.84712      421.29236      9.8708069      8983.1342     -3573.5349    
        82   82             1501.5601      421.17282      9.9489568      8987.5324     -3565.5738    
        83   83             1597.0436      421.01132      10.641483      9215.8901     -3332.4027    
        84   84             1637.3633      420.79164      9.3883178      8750.9821     -3790.7632    
        85   85             1664.8381      420.54463      10.101165      8971.5749     -3562.8082    
        86   86             1697.3433      420.29596      10.226219      8990.0569     -3536.9145    
        87   87             1698.4965      420.051        9.8154112      8828.0526     -3691.6177    
        88   88             1711.4262      419.81697      9.3119809      8593.9997     -3918.6952    
        89   89             1626.7939      419.58878      11.115583      9175.2276     -3330.6663    
        90   90             1691.9042      419.33426      11.54572       9258.8624     -3239.4453    
        91   91             495.89006      419.04732      12.950517      9710.4431     -2779.3125    
        92   92             1437.0686      418.75824      11.526851      9166.2721     -3314.8674    
        93   93             1619.7978      418.49027      12.068293      9328.8066     -3144.3459    
        94   94             1664.5056      418.24113      12.442503      9412.2244     -3053.5026    
        95   95             1674.0268      417.99878      11.367118      8975.5115     -3482.992     
        96   96             1641.9418      417.74996      11.568476      8993.7194     -3457.3682    
        97   97             1698.2369      417.50671      11.172752      8809.7647     -3634.0729    
        98   98             1645.408       417.26845      10.410604      8488.8951     -3947.841     
        99   99             1678.5564      417.03603      11.169155      8701.5245     -3728.2843    
       100   100            1681.9528      416.79916      10.499833      8423.7822     -3998.9667    
Loop time of 0.0759487 on 4 procs for 100 steps with 15000 atoms

Performance: 113.761 ns/day, 0.211 hours/ns, 1316.679 timesteps/s, 19.750 Matom-step/s
98.8% CPU use with 4 MPI tasks x no OpenMP threads

MPI task timing breakdown:
Section |  min time  |  avg time  |  max time  |%varavg| %total
---------------------------------------------------------------
Pair    | 0.035426   | 0.036758   | 0.038559   |   0.6 | 48.40
Bond    | 1.8793e-05 | 2.0489e-05 | 2.1912e-05 |   0.0 |  0.03
Neigh   | 0.010575   | 0.010609   | 0.010657   |   0.0 | 13.97
Comm    | 0.0035417  | 0.0054976  | 0.0068379  |   1.8 |  7.24
Output  | 0.0015128  | 0.0015862  | 0.0017857  |   0.3 |  2.09
Modify  | 0.020361   | 0.020462   | 0.020603   |   0.1 | 26.94
Other   |            | 0.001016   |            |       |  1.34

Nlocal:           3750 ave        3817 max        3672 min
Histogram: 1 0 0 1 0 0 0 0 1 1
Nghost:        1110.75 ave        1143 max        1069 min
Histogram: 1 0 0 1 0 0 0 0 0 2
Neighs:          38357 ave       41018 max       37206 min
Histogram: 2 0 1 0 0 0 0 0 0 1

Total # of neighbors = 153428
Ave neighs/atom = 10.228533
Ave special neighs/atom = 2
Neighbor list builds = 8
Dangerous builds = 0
Total wall time: 0:00:00
