LAMMPS (4 Jul 2026 - Development - patch_4Jul2026-848-gd03be1b44b)
  using 1 OpenMP thread(s) per MPI task

units real

molecule water tip3p.mol
Read molecule template water:
# Water molecule. TIP3P geometry
  1 molecules
  0 fragments
  0 bodies
  3 atoms with max type 2
  2 bonds with max type 1
  1 angles with max type 1
  0 dihedrals with max type 0
  0 impropers with max type 0
atom_style     full

variable        radius equal 100.0
region          box block $(-v_radius) $(v_radius) $(-v_radius) $(v_radius) $(-v_radius) $(v_radius)
region          box block -100 $(v_radius) $(-v_radius) $(v_radius) $(-v_radius) $(v_radius)
region          box block -100 100 $(-v_radius) $(v_radius) $(-v_radius) $(v_radius)
region          box block -100 100 -100 $(v_radius) $(-v_radius) $(v_radius)
region          box block -100 100 -100 100 $(-v_radius) $(v_radius)
region          box block -100 100 -100 100 -100 $(v_radius)
region          box block -100 100 -100 100 -100 100
create_box 2 box bond/types 1 angle/types 1             extra/bond/per/atom 2 extra/angle/per/atom 1 extra/special/per/atom 2
Created orthogonal box = (-100 -100 -100) to (100 100 100)
  1 by 1 by 1 MPI processor grid

mass 1 15.9994
mass 2 1.008

bond_style zero
bond_coeff 1 0.9574
angle_style zero
angle_coeff 1 104.52

region block1 block -80 80 -80 80 -80 80
region block2 block -70 70 -70 70 -70 70
create_atoms 0 random 5000 12345 block2 mol water 12345 overlap 2
Created 15000 atoms
  using lattice units in orthogonal box = (-100 -100 -100) to (100 100 100)
  create_atoms CPU = 1.144 seconds

thermo 1
thermo_style custom step time spcpu temp press etotal pe

fix wall all wall/region block1 harmonic 1000.0 0.0 2.5
fix_modify wall energy yes

pair_style lj/cut/coul/cut 8.0
pair_coeff 1 1 0.1521 3.1507
pair_coeff 2 2 0.0    1.0
velocity all create 300.0 12345
fix 1 all nvt temp 300 300 100.0
fix 2 all shake 0.001 10 10000 b 1 a 1
Finding SHAKE clusters ...
       0 = # of size 2 clusters
       0 = # of size 3 clusters
       0 = # of size 4 clusters
    5000 = # of frozen angles
  find clusters CPU = 0.004 seconds

#dump 2 all movie 10 wall.block.mpg type type size 1500 1500 fsaa yes
#dump_modify 2 pad 4 acolor * white/red/green/blue/aqua/magenta

run             100
Generated 1 of 1 mixed pair_coeff terms from geometric mixing rule
Neighbor list info ...
  update: every = 1 steps, delay = 0 steps, check = yes
  max neighbors/atom: 2000, page size: 100000
  master list distance cutoff = 10
  ghost atom cutoff = 10
  binsize = 5, bins = 40 40 40
  1 neighbor lists, perpetual/occasional/extra = 1 0 0
  (1) pair lj/cut/coul/cut, perpetual
      attributes: half, newton on
      pair build: half/bin/newton
      stencil: half/bin/3d
      bin: standard
SHAKE stats (type/ave/delta/count) on step 0
Bond:   1   0.957198  2.68674e-14    10000
Angle:  1   104.52    2.25953e-12     5000
Per MPI rank memory allocation (min/avg/max) = 8.721 | 8.721 | 8.721 Mbytes
   Step          Time          S/CPU           Temp          Press          TotEng         PotEng    
         0   0              0              450.015        89.518707      15345.637      1932.886     
         1   1              427.81682      300.06612      70.187446      11089.156      2145.6494    
         2   2              426.34378      303.16838      67.262207      10971.688      1935.7183    
         3   3              443.65198      307.80329      64.086142      11128.629      1954.5149    
         4   4              443.29916      313.17704      60.065075      11112.698      1778.4188    
         5   5              443.60062      318.76165      56.691719      11284.816      1784.0868    
         6   6              440.56357      324.32949      52.782344      11154          1487.3212    
         7   7              446.63574      329.79982      49.835153      11232.538      1402.8146    
         8   8              445.80385      335.17745      47.995919      11621.384      1631.3798    
         9   9              427.79852      340.48164      44.82396       11454.124      1306.0281    
        10   10             441.42081      345.71948      41.972064      11322.702      1018.4916    
        11   11             438.06543      350.91453      38.511117      10916.416      457.3662     
        12   12             447.08583      356.06849      36.51278       10993.339      380.67506    
        13   13             447.04206      361.14825      33.798347      10766.882      2.8147706    
        14   14             442.58735      366.12691      32.043991      10835.5       -76.956371    
        15   15             443.06307      370.99663      30.166214      10817.235     -240.36393    
        16   16             137.34017      375.72365      28.744485      10906.708     -291.7804     
        17   17             435.51143      380.25973      26.61069       10713.88      -619.80703    
        18   18             443.22449      384.59738      25.812878      10975.137     -487.83359    
        19   19             442.71902      388.7354       24.844431      11113.458     -472.8473     
        20   20             443.30309      392.64681      23.538508      11099.125     -603.76047    
        21   21             433.02697      396.32458      23.068084      11314.879     -497.62243    
        22   22             430.83244      399.75352      21.835885      11256.102     -658.59916    
        23   23             444.56082      402.92519      20.580834      11160.234     -848.99973    
        24   24             444.72729      405.82925      19.697029      11135.765     -960.0241     
        25   25             444.29556      408.45734      17.950475      10785.898     -1388.2219    
        26   26             446.59385      410.81603      18.397753      11193.336     -1051.0848    
        27   27             136.8121       412.8918       17.869808      11210.704     -1095.5855    
        28   28             433.59118      414.69699      16.168706      10787.617     -1572.4766    
        29   29             442.19554      416.27343      15.033097      10551.682     -1855.3978    
        30   30             442.28941      417.63258      14.675664      10553.683     -1893.9059    
        31   31             443.11412      418.77952      15.164893      10836.639     -1645.1345    
        32   32             443.86486      419.75371      15.46342       11054.53      -1456.2795    
        33   33             445.11806      420.55361      15.024571      10969.38      -1565.2701    
        34   34             434.96302      421.19544      14.229675      10725.789     -1827.9913    
        35   35             436.46585      421.71637      14.107159      10734.745     -1834.562     
        36   36             137.38685      422.10907      13.702542      10613.813     -1967.1979    
        37   37             442.81724      422.40897      12.619241      10233.556     -2356.394     
        38   38             442.46789      422.65101      13.372268      10488.299     -2108.8647    
        39   39             433.75894      422.82795      13.869167      10656.515     -1945.923     
        40   40             435.95305      422.94922      12.57113       10189.858     -2416.1942    
        41   41             439.71139      423.03588      12.820728      10250.129     -2358.5058    
        42   42             440.51117      423.08792      13.905843      10591.668     -2018.518     
        43   43             442.70334      423.13196      14.135474      10644.518     -1966.9805    
        44   44             446.18656      423.18861      13.823502      10531.589     -2081.5985    
        45   45             135.56649      423.23824      12.577515      10065.171     -2549.4954    
        46   46             434.9006       423.27229      12.026116      9865.6465     -2750.0347    
        47   47             442.74078      423.30165      12.505134      10034.265     -2582.2915    
        48   48             442.41484      423.33714      11.464711      9682.3373     -2935.277     
        49   49             444.55094      423.36391      12.52292       10037.894     -2580.5176    
        50   50             443.97738      423.35931      11.948186      9830.2861     -2787.9889    
        51   51             423.89047      423.32985      10.651068      9362.8422     -3254.5547    
        52   52             432.31783      423.29001      9.8955615      9097.2013     -3519.0081    
        53   53             438.96904      423.26435      9.8752668      9083.8686     -3531.576     
        54   54             442.53251      423.26262      8.9961158      8759.889      -3855.5041    
        55   55             137.31654      423.25745      9.7290636      9034.5556     -3580.6833    
        56   56             438.27509      423.25324      9.9145554      9107.2393     -3507.8743    
        57   57             431.19916      423.2437       10.364737      9251.7142     -3363.115     
        58   58             437.78294      423.2233       10.196892      9201.186      -3413.035     
        59   59             441.42471      423.20863      9.6852384      9041.8462     -3571.9376    
        60   60             441.0367       423.17719      9.6118966      9012.518      -3600.3286    
        61   61             441.62394      423.1015       10.217962      9213.9069     -3396.6838    
        62   62             439.70578      422.97261      12.368754      9949.3439     -2657.4054    
        63   63             438.76064      422.80305      10.566709      9284.421      -3317.2745    
        64   64             414.94155      422.60032      10.38711       9196.42       -3399.2329    
        65   65             333.83553      422.38157      10.800975      9303.6519     -3285.4812    
        66   66             121.95153      422.16354      10.550255      9215.5365     -3367.0983    
        67   67             441.38399      421.94199      10.619147      9213.5294     -3362.502     
        68   68             437.33971      421.70076      10.257773      9053.2165     -3515.625     
        69   69             443.58074      421.41563      10.184011      9000.6836     -3559.6596    
        70   70             446.06694      421.09518      10.41313       9071.5605     -3479.2318    
        71   71             444.2997       420.76989      12.403405      9719.6814     -2821.4155    
        72   72             440.7426       420.42627      12.124698      9609.3399     -2921.5154    
        73   73             443.86486      420.05509      11.831648      9463.1794     -3056.6128    
        74   74             446.06893      419.67926      12.670401      9713.6711     -2794.9196    
        75   75             437.4547       419.30663      13.123558      9819.7674     -2677.7169    
        76   76             353.22796      418.93751      12.670581      9630.0252     -2856.4575    
        77   77             136.07923      418.55239      11.727759      9267.0676     -3207.9366    
        78   78             441.28816      418.15018      11.255709      9069.7972     -3393.219     
        79   79             445.64869      417.74991      11.337734      9046.0052     -3405.0808    
        80   80             430.76173      417.36248      10.230233      8624.8927     -3814.6459    
        81   81             432.07649      416.96679      9.1196301      8181.9853     -4245.7599    
        82   82             441.87821      416.56884      8.4969274      7941.6261     -4474.258     
        83   83             444.53711      416.17365      9.0649243      8126.9765     -4277.1288    
        84   84             443.82762      415.76658      9.2361087      8139.3308     -4252.6418    
        85   85             445.40791      415.35524      9.7581217      8273.7275     -4105.9853    
        86   86             442.59146      414.93714      10.059506      8321.7448     -4045.5064    
        87   87             136.96472      414.51604      9.0892117      7951.2088     -4403.4913    
        88   88             440.94316      414.08064      10.21626       8302.3629     -4039.3602    
        89   89             445.61095      413.67733      10.451185      8357.476      -3972.2263    
        90   90             441.95457      413.31662      10.877358      8470.1302     -3848.821     
        91   91             447.65322      412.95585      11.279415      8597.5111     -3710.6876    
        92   92             440.34609      412.6115       11.286268      8558.7691     -3739.166     
        93   93             440.33989      412.29773      11.579478      8628.2583     -3660.325     
        94   94             437.43747      412.01513      11.950159      8712.3494     -3567.8108    
        95   95             446.86986      411.75907      11.84293       8623.2587     -3649.2698    
        96   96             440.46441      411.51133      12.069346      8678.178      -3586.9663    
        97   97             137.91823      411.2941       12.296713      8733.2877     -3525.3821    
        98   98             433.98144      411.12281      13.144551      9004.7886     -3248.7759    
        99   99             435.58389      410.97199      13.279727      9009.5108     -3239.5586    
       100   100            444.08405      410.83663      12.76738       8811.551      -3433.4841    
Loop time of 0.274695 on 1 procs for 100 steps with 15000 atoms

Performance: 31.453 ns/day, 0.763 hours/ns, 364.041 timesteps/s, 5.461 Matom-step/s
99.6% CPU use with 1 MPI tasks x 1 OpenMP threads

MPI task timing breakdown:
Section |  min time  |  avg time  |  max time  |%varavg| %total
---------------------------------------------------------------
Pair    | 0.152      | 0.152      | 0.152      |   0.0 | 55.33
Bond    | 2.1841e-05 | 2.1841e-05 | 2.1841e-05 |   0.0 |  0.01
Neigh   | 0.04394    | 0.04394    | 0.04394    |   0.0 | 16.00
Comm    | 0.00078242 | 0.00078242 | 0.00078242 |   0.0 |  0.28
Output  | 0.0043815  | 0.0043815  | 0.0043815  |   0.0 |  1.60
Modify  | 0.071328   | 0.071328   | 0.071328   |   0.0 | 25.97
Other   |            | 0.002245   |            |       |  0.82

Nlocal:          15000 ave       15000 max       15000 min
Histogram: 1 0 0 0 0 0 0 0 0 0
Nghost:              0 ave           0 max           0 min
Histogram: 1 0 0 0 0 0 0 0 0 0
Neighs:         153619 ave      153619 max      153619 min
Histogram: 1 0 0 0 0 0 0 0 0 0

Total # of neighbors = 153619
Ave neighs/atom = 10.241267
Ave special neighs/atom = 2
Neighbor list builds = 9
Dangerous builds = 0
Total wall time: 0:00:01
