LAMMPS (4 Jul 2026 - Development - patch_4Jul2026-848-gd03be1b44b)
  using 1 OpenMP thread(s) per MPI task

units real

molecule water tip3p.mol
Read molecule template water:
# Water molecule. TIP3P geometry
  1 molecules
  0 fragments
  0 bodies
  3 atoms with max type 2
  2 bonds with max type 1
  1 angles with max type 1
  0 dihedrals with max type 0
  0 impropers with max type 0
atom_style     full

variable        radius equal 100.0
region          box block $(-v_radius) $(v_radius) $(-v_radius) $(v_radius) $(-v_radius) $(v_radius)
region          box block -100 $(v_radius) $(-v_radius) $(v_radius) $(-v_radius) $(v_radius)
region          box block -100 100 $(-v_radius) $(v_radius) $(-v_radius) $(v_radius)
region          box block -100 100 -100 $(v_radius) $(-v_radius) $(v_radius)
region          box block -100 100 -100 100 $(-v_radius) $(v_radius)
region          box block -100 100 -100 100 -100 $(v_radius)
region          box block -100 100 -100 100 -100 100
create_box 2 box bond/types 1 angle/types 1             extra/bond/per/atom 2 extra/angle/per/atom 1 extra/special/per/atom 2
Created orthogonal box = (-100 -100 -100) to (100 100 100)
  1 by 2 by 2 MPI processor grid

mass 1 15.9994
mass 2 1.008

bond_style zero
bond_coeff 1 0.9574
angle_style zero
angle_coeff 1 104.52

region sphere1 sphere 0 0 0 $(v_radius-10) side in
region sphere1 sphere 0 0 0 90 side in
region sphere2 sphere 0 0 0 $(v_radius-20) side in
region sphere2 sphere 0 0 0 80 side in
create_atoms 0 random 5000 12345 sphere2 mol water 12345 overlap 2
Created 15000 atoms
  using lattice units in orthogonal box = (-100 -100 -100) to (100 100 100)
  create_atoms CPU = 0.320 seconds

thermo 1
thermo_style custom step time spcpu temp press etotal pe

fix wall all wall/region sphere1 harmonic 1000.0 0.0 2.5
fix_modify wall energy yes

pair_style lj/cut/coul/cut 8.0
pair_coeff 1 1 0.1521 3.1507
pair_coeff 2 2 0.0    1.0
velocity all create 300.0 12345
fix 1 all nvt temp 300 300 100.0
fix 2 all shake 0.001 10 10000 b 1 a 1
Finding SHAKE clusters ...
       0 = # of size 2 clusters
       0 = # of size 3 clusters
       0 = # of size 4 clusters
    5000 = # of frozen angles
  find clusters CPU = 0.001 seconds

#dump 2 all movie 10 wall.sphere.mpg type type size 1500 1500 fsaa yes
#dump_modify 2 pad 4 acolor * white/red/green/blue/aqua/magenta

run             100
Generated 1 of 1 mixed pair_coeff terms from geometric mixing rule
Neighbor list info ...
  update: every = 1 steps, delay = 0 steps, check = yes
  max neighbors/atom: 2000, page size: 100000
  master list distance cutoff = 10
  ghost atom cutoff = 10
  binsize = 5, bins = 40 40 40
  1 neighbor lists, perpetual/occasional/extra = 1 0 0
  (1) pair lj/cut/coul/cut, perpetual
      attributes: half, newton on
      pair build: half/bin/newton
      stencil: half/bin/3d
      bin: standard
SHAKE stats (type/ave/delta/count) on step 0
Bond:   1   0.957198  2.4758e-14     10000
Angle:  1   104.52    2.00373e-12     5000
Per MPI rank memory allocation (min/avg/max) = 7.934 | 7.939 | 7.945 Mbytes
   Step          Time          S/CPU           Temp          Press          TotEng         PotEng    
         0   0              0              450.015        114.64061      13141.549     -271.20213    
         1   1              1193.7134      305.41819      69.195553      8869.3337     -233.69185    
         2   2              1233.3802      309.61189      66.639773      9148.1733     -79.846237    
         3   3              1283.7152      315.43638      61.475972      8850.2155     -551.40354    
         4   4              1250.3438      321.9795       56.858614      8877.6283     -719.0093     
         5   5              1257.9408      328.69155      52.773961      8999.421      -797.26997    
         6   6              1280.618       335.35955      48.314845      8861.132      -1134.2996    
         7   7              1299.7985      341.9309       44.490335      8794.9079     -1396.3835    
         8   8              1281.2907      348.44058      41.11571       8771.9781     -1613.3349    
         9   9              1285.4181      354.92531      38.240933      8849.6035     -1728.9878    
        10   10             1247.6887      361.38697      36.44155       9222.1626     -1549.0191    
        11   11             1262.3633      367.83226      34.355492      9428.4077     -1534.8769    
        12   12             1274.7948      374.24895      33.025884      9886.7492     -1267.7855    
        13   13             1290.4358      380.62535      31.30619       10142.53      -1202.0541    
        14   14             1294.0511      386.94381      28.226931      9877.746      -1655.1605    
        15   15             1225.7155      393.14571      27.214537      10326.537     -1391.2177    
        16   16             1278.2885      399.153        24.818095      10233.437     -1663.366     
        17   17             386.14646      404.89215      23.049591      10284.006     -1783.8528    
        18   18             1261.5017      410.30082      20.818827      10182.043     -2047.022     
        19   19             1287.8731      415.35673      18.798295      10064.971     -2314.7862    
        20   20             1316.8429      420.02261      18.746917      10567.727     -1951.0969    
        21   21             1324.9719      424.25485      17.645523      10658.258     -1986.7085    
        22   22             1321.8124      428.08639      15.727056      10408.681     -2350.4855    
        23   23             1322.6726      431.56024      13.137445      9884.0361     -2978.6685    
        24   24             1333.6285      434.6843       13.336956      10267.739     -2688.0781    
        25   25             1348.2213      437.47993      12.29515       10196.369     -2842.7729    
        26   26             416.12137      439.97157      10.558864      9842.8384     -3270.5669    
        27   27             1274.6485      442.18475      9.2724507      9611.8052     -3567.5641    
        28   28             1311.5993      444.16295      8.8274107      9640.5556     -3597.7741    
        29   29             1313.1011      445.92422      9.2266911      9935.8608     -3354.964     
        30   30             1318.7758      447.47913      9.0747032      10014.589     -3322.5802    
        31   31             1307.0136      448.87205      9.0000699      10108.105     -3270.5807    
        32   32             1303.8711      450.12533      9.3683325      10353.299     -3062.7407    
        33   33             1297.7187      451.24063      8.8541599      10252.147     -3197.1342    
        34   34             1307.4938      452.26574      9.7845729      10663.388     -2816.4466    
        35   35             414.49523      453.20316      10.752252      11053.357     -2454.4169    
        36   36             1276.6044      454.04317      10.493763      11061.018     -2471.7931    
        37   37             1286.263       454.83234      9.0918172      10620.803     -2935.5297    
        38   38             1311.6681      455.57932      9.7594581      10902.605     -2675.991     
        39   39             1307.9384      456.27417      9.3536857      10816.188     -2783.1185    
        40   40             1321.2536      456.90251      8.3542546      10527.914     -3090.1195    
        41   41             1325.3073      457.45263      8.24416        10564.333     -3070.0972    
        42   42             1320.5713      457.95996      7.1357891      10210.921     -3438.6305    
        43   43             1333.9665      458.40707      8.8476434      10838.451     -2824.4263    
        44   44             413.15536      458.76015      8.8604495      10866.665     -2806.7364    
        45   45             1275.7885      459.03119      8.6181851      10829.448     -2852.0314    
        46   46             1281.9494      459.2224       7.5939027      10488.696     -3198.4828    
        47   47             1311.2209      459.30865      6.2285812      10003.366     -3686.3834    
        48   48             1313.8792      459.30486      6.9997868      10253.675     -3435.9613    
        49   49             1308.0257      459.21285      8.092579       10619.149     -3067.7454    
        50   50             1267.6055      459.00148      7.5671391      10392.713     -3287.8805    
        51   51             1290.3359      458.6874       8.0026671      10476.703     -3194.5294    
        52   52             1270.4301      458.28498      8.2762881      10509.353     -3149.8856    
        53   53             402.92443      457.80319      10.337046      11140.91      -2503.9691    
        54   54             1275.0711      457.27342      9.3628304      10762.04      -2867.0492    
        55   55             1284.9044      456.73874      8.5881124      10419.015     -3194.1377    
        56   56             1313.0321      456.20816      8.9431937      10479.801     -3117.5375    
        57   57             1324.3402      455.66265      8.8849143      10424.844     -3156.2358    
        58   58             1329.5609      455.11439      8.9011168      10384.049     -3180.6902    
        59   59             1325.5163      454.55899      8.4693558      10220.137     -3328.0477    
        60   60             1331.565       453.98062      8.9706586      10352.634     -3178.3131    
        61   61             1325.5356      453.40424      8.197204       10073.131     -3440.6363    
        62   62             1336.1464      452.86272      8.0839386      10024.741     -3472.8862    
        63   63             407.32136      452.35387      8.7328866      10207.492     -3274.9693    
        64   64             1269.9445      451.83402      8.8786679      10246.055     -3220.912     
        65   65             1296.4048      451.29136      7.4858998      9750.1191     -3700.6739    
        66   66             1300.9992      450.75641      8.0780904      9925.127      -3509.7217    
        67   67             1289.5522      450.24436      9.1190055      10280.419     -3139.1681    
        68   68             1301.3564      449.74402      10.457597      10708.285     -2696.3897    
        69   69             1323.9702      449.26634      10.313901      10623.4       -2767.0373    
        70   70             1324.6384      448.82707      10.42518       10632.781     -2744.5639    
        71   71             1329.8261      448.43969      9.661845       10345.618     -3020.1806    
        72   72             1312.9459      448.10164      10.178258      10512.82      -2842.9033    
        73   73             1330.4649      447.80593      12.296168      11236.08      -2110.8291    
        74   74             411.66409      447.57385      10.73896       10638.167     -2701.8249    
        75   75             1266.4159      447.3996       10.348846      10487.963     -2846.8361    
        76   76             1309.2775      447.25667      11.136155      10749.121     -2581.4174    
        77   77             1314.6409      447.14914      11.550383      10866.204     -2461.1291    
        78   78             1321.0424      447.06208      10.49047       10463.197     -2861.5421    
        79   79             1328.4994      446.97209      10.011333      10269.187     -3052.8698    
        80   80             1336.1464      446.88053      8.7842826      9815.5695     -3503.7583    
        81   81             1329.4195      446.75501      8.5751363      9701.0666     -3614.5198    
        82   82             1328.2523      446.60186      9.2966005      9918.2172     -3392.8047    
        83   83             1324.6191      446.43486      9.6965831      10027.184     -3278.8601    
        84   84             409.99855      446.2497       9.771478       10013.19      -3287.3361    
        85   85             1238.43        446.06713      8.8517706      9624.0864     -3670.9979    
        86   86             1273.2333      445.88415      8.3147882      9378.7052     -3910.9254    
        87   87             1264.4751      445.68674      7.497676       9046.9194     -4236.8272    
        88   88             1307.3399      445.47386      8.0060714      9177.4175     -4099.9843    
        89   89             1323.1626      445.24962      8.6640333      9372.7662     -3897.9522    
        90   90             1322.321       445.02306      10.52431       9979.0753     -3284.8903    
        91   91             1279.5512      444.80837      10.668666      10001.332     -3256.2348    
        92   92             1329.9146      444.60567      10.529293      9929.4807     -3322.0445    
        93   93             1325.8168      444.41057      8.8611779      9309.1047     -3936.6056    
        94   94             1323.8808      444.19839      9.2599851      9417.7335     -3821.6527    
        95   95             410.28856      443.96668      8.8523889      9244.8833     -3987.5967    
        96   96             1267.4287      443.74454      8.8522523      9223.578      -4002.2811    
        97   97             1284.6717      443.53176      8.0436754      8920.2085     -4299.3086    
        98   98             1309.4318      443.3167       9.2685372      9331.2851     -3881.8222    
        99   99             1321.7617      443.07979      8.1647574      8905.2184     -4300.8278    
       100   100            1314.3454      442.84227      8.1924121      8883.1966     -4315.7702    
Loop time of 0.0921312 on 4 procs for 100 steps with 15000 atoms

Performance: 93.779 ns/day, 0.256 hours/ns, 1085.408 timesteps/s, 16.281 Matom-step/s
98.9% CPU use with 4 MPI tasks x 1 OpenMP threads

MPI task timing breakdown:
Section |  min time  |  avg time  |  max time  |%varavg| %total
---------------------------------------------------------------
Pair    | 0.043062   | 0.047578   | 0.051422   |   1.4 | 51.64
Bond    | 1.4141e-05 | 1.5352e-05 | 1.7909e-05 |   0.0 |  0.02
Neigh   | 0.013737   | 0.013759   | 0.013784   |   0.0 | 14.93
Comm    | 0.0026518  | 0.0065065  | 0.011034   |   3.7 |  7.06
Output  | 0.0014378  | 0.0015082  | 0.0016884  |   0.3 |  1.64
Modify  | 0.021906   | 0.021998   | 0.022114   |   0.1 | 23.88
Other   |            | 0.0007663  |            |       |  0.83

Nlocal:           3750 ave        3867 max        3631 min
Histogram: 2 0 0 0 0 0 0 0 0 2
Nghost:         1503.5 ave        1616 max        1449 min
Histogram: 2 0 1 0 0 0 0 0 0 1
Neighs:        49726.5 ave       54171 max       46049 min
Histogram: 1 0 0 1 1 0 0 0 0 1

Total # of neighbors = 198906
Ave neighs/atom = 13.2604
Ave special neighs/atom = 2
Neighbor list builds = 9
Dangerous builds = 0
Total wall time: 0:00:00
