units		electron
atom_style	atomic
atom_modify map yes
boundary	p p p

pair_style      lj/cut 13.98
read_data	data.fcc
mass		1 1.0

#epsilon = 34.2 K * 3.1668E-6 hartree/K
#sigma = 2.96 angstrom * 1.88 bohr/angstrom

pair_coeff  	* * 0.0001083 5.59 13.98
#pair_coeff * * 0.1 5.59 13.98
pair_modify	shift yes

neigh_modify delay 0 every 1

velocity all set 0.0 0.0 0.0
fix 1 all ipi lmp2 9900 unix reset
#fix 2 all nve

dump 3 all custom 1 ipi.xyz id x y z fx fy fz vx vy fz

run		100000000
#run 1
