boundary p p f
kspace_style ewald/electrode 1.0e-8
kspace_modify slab ew2d

include "settings.mod" # styles, computes, groups and fixes

thermo_style custom step pe c_qbot c_qtop
fix conp bot electrode/conp 0 2 couple top 1 symm on write_inv inv.csv write_vec vec.csv

run 0

