boundary p p f
kspace_style pppm/electrode 1.0e-10
kspace_modify slab 8.0 # ew3dc

include "settings.mod" # styles, computes, groups and fixes

thermo_style custom step pe c_qbot c_qtop
fix conp bot electrode/conp 0 2 couple top 1 symm on write_inv inv.csv write_vec vec.csv

run 0

