LAMMPS (2 Sep 2026)
  using 1 OpenMP thread(s) per MPI task
# Load then unload four cantilevers with different plastic yield strains
#   model from DOI: 10.1016/j.powtec.2024.120563

units           lj
dimension       3
boundary        p s s
atom_style      bond
special_bonds   lj 0.0 1.0 1.0 coul 0.0 1.0 1.0
newton          on off
comm_modify     vel yes cutoff 2.6
lattice         fcc 1.41
Lattice spacing in x,y,z = 1.4156209 1.4156209 1.4156209
region          box block 0 20 -1 41 -5 5 units box
create_box      4 box bond/types 4 extra/bond/per/atom 20 extra/special/per/atom 50
Created orthogonal box = (0 -1 -5) to (20 41 5)
  1 by 4 by 1 MPI processor grid
mass            * 1.0

# Create initial disordered geometry somewhat near jamming

region          cantilever block 3.0 12.0 0 40 -2.5 2.5 units box
region          cantileverw block 2.0 13.0 -1 41 -3.5 3.5 units box
create_atoms    1 region cantilever
Created 2394 atoms
  using lattice units in orthogonal box = (0 -1.0042 -5.001) to (20 41.0042 5.001)
  create_atoms CPU = 0.001 seconds

velocity        all create 0.1 345910 loop geom

pair_style      bpm/spring
pair_coeff      * * 1.0 1.0 1.0

fix             1 all nve
fix             wtemp all wall/region cantileverw harmonic 1.0 1.0 1.0

thermo_style    custom step ke pe pxx pyy pzz
thermo          100

timestep        0.1
run             20000
Generated 0 of 6 mixed pair_coeff terms from geometric mixing rule
Neighbor list info ...
  update: every = 1 steps, delay = 0 steps, check = yes
  max neighbors/atom: 2000, page size: 100000
  master list distance cutoff = 1.3
  ghost atom cutoff = 2.6
  binsize = 0.65, bins = 31 65 16
  1 neighbor lists, perpetual/occasional/extra = 1 0 0
  (1) pair bpm/spring, perpetual
      attributes: half, newton on
      pair build: half/bin/newton
      stencil: half/bin/3d
      bin: standard
Per MPI rank memory allocation (min/avg/max) = 9.649 | 9.65 | 9.655 Mbytes
   Step         KinEng         PotEng          Pxx            Pyy            Pzz      
         0   0.14993734     0              0.071433813    0.069488353    0.072168413  
       100   0.0066849431   0.0030619554   0.016386256    0.017082694    0.016330788  
       200   0.0020630191   0.00069799426  0.0073712582   0.0075517731   0.0067526409 
       300   0.00092050672  0.00026066738  0.0040938436   0.0044179534   0.0038127345 
       400   0.00050607187  0.00012109241  0.0024008351   0.002714033    0.0023958333 
       500   0.00032613289  6.6795021e-05  0.0017015194   0.001869299    0.0015946805 
       600   0.00023338256  4.114523e-05   0.0012593736   0.0013033705   0.0012002568 
       700   0.0001734909   2.7299143e-05  0.00098289298  0.0010205219   0.0009457571 
       800   0.00013577726  1.8642656e-05  0.00077341293  0.00078302956  0.0007490173 
       900   0.00011027734  1.4699747e-05  0.00066919175  0.00070474687  0.00059769076
      1000   9.1379064e-05  1.1861705e-05  0.00056353593  0.00060124052  0.00050604095
      1100   7.8048956e-05  9.4072173e-06  0.00047518092  0.00052676235  0.00046541079
      1200   6.705676e-05   8.0038321e-06  0.00042738009  0.00046209499  0.00042268269
      1300   5.8539162e-05  6.4373597e-06  0.00038065595  0.00039313303  0.00035408251
      1400   5.1797136e-05  5.3041788e-06  0.00033521113  0.00034350604  0.00033021666
      1500   4.6958817e-05  4.2734873e-06  0.00028490842  0.00032740189  0.00026053448
      1600   4.2192528e-05  4.0437918e-06  0.00027962144  0.00029615158  0.00023536318
      1700   3.8367651e-05  3.5659934e-06  0.00024417759  0.0002682736   0.00025769803
      1800   3.5208955e-05  3.1951859e-06  0.00022230209  0.00025701625  0.00022494926
      1900   3.2207107e-05  3.0274125e-06  0.00022117803  0.00023211707  0.00020411384
      2000   3.0210817e-05  2.5296599e-06  0.00019879275  0.00022663334  0.0001926605 
      2100   2.7803965e-05  2.4406078e-06  0.00019196841  0.00021024826  0.00019236141
      2200   2.6327687e-05  2.0475708e-06  0.00017702871  0.00018930746  0.00015831829
      2300   2.4643901e-05  2.0023687e-06  0.00016109045  0.00017958389  0.00017528736
      2400   2.3085007e-05  1.7975804e-06  0.00016256633  0.00017472192  0.00013948954
      2500   2.1882687e-05  1.6747852e-06  0.00014289787  0.0001723666   0.00012327199
      2600   2.0833763e-05  1.5093914e-06  0.00014235874  0.00015169373  0.00013838966
      2700   1.9833348e-05  1.292798e-06   0.00013206079  0.00013792244  0.00012271343
      2800   1.8735432e-05  1.2022739e-06  0.00012068384  0.00012882713  0.00012170672
      2900   1.7763554e-05  1.1584028e-06  0.00012198455  0.0001252241   0.00010499295
      3000   1.6955575e-05  1.0866285e-06  0.00011038678  0.00012841844  0.00012188661
      3100   1.6287399e-05  1.0015147e-06  0.00010680168  0.00011313975  0.00011450867
      3200   1.5481497e-05  1.0137415e-06  0.00010263029  0.0001188679   0.00010365839
      3300   1.4832468e-05  9.5150441e-07  0.00010091125  0.00010994934  0.00010278927
      3400   1.4244382e-05  9.4023772e-07  0.00010034757  0.0001135332   0.00010548871
      3500   1.3677122e-05  9.2243744e-07  8.7230761e-05  0.00011906056  9.5081954e-05
      3600   1.3251016e-05  7.2518245e-07  8.2740165e-05  9.1707694e-05  8.4775353e-05
      3700   1.2794648e-05  7.1583255e-07  8.6582226e-05  9.2219496e-05  8.7043369e-05
      3800   1.224497e-05   7.4919966e-07  8.5619096e-05  8.3155571e-05  9.4812717e-05
      3900   1.1889642e-05  6.6456211e-07  6.731228e-05   8.87951e-05    9.277293e-05 
      4000   1.1623357e-05  5.1270741e-07  6.5488996e-05  7.8238397e-05  7.0293857e-05
      4100   1.1150645e-05  5.7939479e-07  8.2883714e-05  7.9422134e-05  6.4296408e-05
      4200   1.0778424e-05  5.8182562e-07  7.1660334e-05  8.8209962e-05  7.1742507e-05
      4300   1.0493884e-05  4.9210815e-07  6.8346405e-05  7.2389687e-05  5.9272774e-05
      4400   1.0038234e-05  6.0546387e-07  7.7064851e-05  8.3963307e-05  6.6378761e-05
      4500   9.8038223e-06  5.047098e-07   7.1416084e-05  7.1781588e-05  6.1630426e-05
      4600   9.5420983e-06  4.7540163e-07  6.4791748e-05  7.4233227e-05  6.3863763e-05
      4700   9.2594547e-06  4.5387848e-07  5.9443558e-05  6.769541e-05   6.5770753e-05
      4800   8.9641605e-06  5.0515656e-07  6.6537693e-05  7.4860241e-05  5.6630321e-05
      4900   8.7700159e-06  4.6414117e-07  6.2520744e-05  6.6770301e-05  5.8578051e-05
      5000   8.555662e-06   4.376016e-07   6.0951001e-05  6.3571347e-05  6.0914413e-05
      5100   8.3943138e-06  3.9405249e-07  4.9385842e-05  6.1983539e-05  6.1625363e-05
      5200   8.1532527e-06  3.8882859e-07  5.5920373e-05  6.0173379e-05  5.5677742e-05
      5300   7.9993286e-06  3.5755153e-07  4.429577e-05   6.0125642e-05  5.3310815e-05
      5400   7.803246e-06   3.4308898e-07  5.2293615e-05  5.475782e-05   5.4459665e-05
      5500   7.573096e-06   3.5674273e-07  4.9339015e-05  6.3032786e-05  5.1637296e-05
      5600   7.4492058e-06  3.0668289e-07  4.9417861e-05  5.6150586e-05  4.0236315e-05
      5700   7.2419272e-06  3.3130783e-07  5.3652318e-05  5.5570861e-05  4.3909683e-05
      5800   7.1305213e-06  2.8978363e-07  4.7965365e-05  4.9889985e-05  4.5483293e-05
      5900   6.9339389e-06  3.2787824e-07  4.5979321e-05  5.3033242e-05  5.0535311e-05
      6000   6.7576496e-06  3.3384372e-07  4.7592179e-05  5.8953532e-05  5.1388112e-05
      6100   6.678482e-06   2.5320377e-07  4.4729216e-05  4.7332487e-05  4.1050613e-05
      6200   6.5481617e-06  2.5149457e-07  4.0735138e-05  4.6769921e-05  4.4461985e-05
      6300   6.4031177e-06  2.7148601e-07  4.8760093e-05  4.7038492e-05  4.7157467e-05
      6400   6.2794112e-06  2.5525634e-07  4.1335226e-05  4.3728558e-05  4.0056256e-05
      6500   6.1622614e-06  2.5059558e-07  4.1329397e-05  4.4635946e-05  3.9128888e-05
      6600   6.027379e-06   2.6922667e-07  4.0807888e-05  4.7633041e-05  4.5481044e-05
      6700   5.9203812e-06  2.5160353e-07  3.7467972e-05  5.0569193e-05  3.5662357e-05
      6800   5.8400878e-06  2.1503138e-07  3.7148527e-05  4.0340815e-05  3.36895e-05  
      6900   5.7537935e-06  2.0395602e-07  3.758885e-05   4.0278139e-05  3.6630135e-05
      7000   5.6242565e-06  2.3547907e-07  3.8833395e-05  4.4391481e-05  4.1107089e-05
      7100   5.5293163e-06  2.3071793e-07  3.7709598e-05  4.1572371e-05  4.078232e-05 
      7200   5.4681519e-06  2.1060826e-07  3.6388771e-05  3.9815203e-05  3.9738557e-05
      7300   5.3814109e-06  1.8979112e-07  3.8098323e-05  3.8027895e-05  3.245074e-05 
      7400   5.2811422e-06  2.0065629e-07  3.3972403e-05  4.2967355e-05  3.3367199e-05
      7500   5.173861e-06   2.1362603e-07  3.6298994e-05  3.9846713e-05  3.8463141e-05
      7600   5.1440042e-06  1.641397e-07   2.8052685e-05  3.3310309e-05  3.3295374e-05
      7700   5.0691339e-06  1.6216644e-07  3.044223e-05   3.6258029e-05  2.9192831e-05
      7800   4.9773714e-06  1.7010134e-07  3.3343516e-05  3.8028485e-05  3.3449864e-05
      7900   4.9221715e-06  1.4491626e-07  2.7751526e-05  3.130829e-05   3.027442e-05 
      8000   4.8591482e-06  1.502777e-07   3.2649386e-05  3.5695782e-05  2.4355085e-05
      8100   4.7546591e-06  1.7259154e-07  3.6860626e-05  3.8318971e-05  2.8862849e-05
      8200   4.6857111e-06  1.7446602e-07  3.3043813e-05  3.3417143e-05  3.6826528e-05
      8300   4.6610032e-06  1.4789703e-07  3.0619253e-05  2.8985784e-05  2.8391483e-05
      8400   4.5598435e-06  1.7180596e-07  3.2518838e-05  3.0316779e-05  3.4932466e-05
      8500   4.4877083e-06  1.7401418e-07  3.5771526e-05  3.123816e-05   2.6113667e-05
      8600   4.4576665e-06  1.4861271e-07  2.727019e-05   3.0425166e-05  2.9611151e-05
      8700   4.3754261e-06  1.5384426e-07  2.9923458e-05  3.314126e-05   3.0520908e-05
      8800   4.315099e-06   1.5984518e-07  3.1308403e-05  3.5425281e-05  2.4286986e-05
      8900   4.2605004e-06  1.6524353e-07  3.1182248e-05  3.4800107e-05  2.7910003e-05
      9000   4.2082942e-06  1.5291488e-07  3.043125e-05   3.1167228e-05  2.6508297e-05
      9100   4.1803743e-06  1.2829148e-07  2.549077e-05   2.9461403e-05  2.8501408e-05
      9200   4.1138917e-06  1.3180366e-07  2.8487095e-05  3.1963886e-05  2.2826135e-05
      9300   4.0745355e-06  1.2646371e-07  3.3020089e-05  2.49726e-05    2.5802072e-05
      9400   4.0519614e-06  1.0204639e-07  2.3891702e-05  2.6394408e-05  2.3081151e-05
      9500   3.9643259e-06  1.3191229e-07  2.967008e-05   2.4936116e-05  2.5717017e-05
      9600   3.9147928e-06  1.3870532e-07  2.5655225e-05  2.985531e-05   2.9095523e-05
      9700   3.8683668e-06  1.2207403e-07  2.3999808e-05  2.6501165e-05  2.3566272e-05
      9800   3.8414751e-06  1.175835e-07   2.6903376e-05  2.6945629e-05  2.2328242e-05
      9900   3.7738791e-06  1.2380641e-07  2.6058861e-05  2.4457101e-05  2.7119793e-05
     10000   3.750787e-06   1.2288156e-07  2.5542434e-05  2.6470299e-05  2.6101889e-05
     10100   3.7492864e-06  7.9110603e-08  2.2873905e-05  1.9018997e-05  1.9291356e-05
     10200   3.6743974e-06  1.0326413e-07  2.1855957e-05  2.469988e-05   2.4486095e-05
     10300   3.6353025e-06  1.0435098e-07  2.4055131e-05  2.3751503e-05  2.4280285e-05
     10400   3.6091963e-06  8.8982307e-08  2.1666335e-05  2.037067e-05   2.3032538e-05
     10500   3.5482345e-06  1.1364815e-07  2.7343416e-05  2.6525241e-05  2.4348925e-05
     10600   3.5163504e-06  1.1193939e-07  2.2738036e-05  2.3387004e-05  2.2525387e-05
     10700   3.4736432e-06  1.1904627e-07  2.7312499e-05  2.5480155e-05  2.5325202e-05
     10800   3.4571424e-06  8.9477024e-08  2.3276028e-05  2.07616e-05    2.2246814e-05
     10900   3.4044721e-06  1.0750665e-07  2.2697961e-05  2.3017599e-05  2.3281095e-05
     11000   3.3903479e-06  8.7815048e-08  2.1079877e-05  2.4661094e-05  2.1201786e-05
     11100   3.3383309e-06  9.9063556e-08  2.2298318e-05  2.6239049e-05  1.9753708e-05
     11200   3.3073776e-06  9.0328403e-08  2.0484261e-05  2.1607038e-05  2.2195005e-05
     11300   3.2834339e-06  8.327733e-08   2.154903e-05   1.9112541e-05  1.8302892e-05
     11400   3.2532391e-06  8.0789589e-08  1.6140178e-05  2.2964387e-05  1.9221193e-05
     11500   3.2237252e-06  8.1909414e-08  2.1754756e-05  2.212896e-05   1.8725814e-05
     11600   3.1788926e-06  8.1780187e-08  2.0290058e-05  2.0457338e-05  2.1260589e-05
     11700   3.1381215e-06  1.0607217e-07  2.3029037e-05  2.706855e-05   2.4897105e-05
     11800   3.1291216e-06  8.485955e-08   2.2023044e-05  1.9919435e-05  1.7281196e-05
     11900   3.0845397e-06  9.8354957e-08  2.1490234e-05  2.4474128e-05  2.0357729e-05
     12000   3.0781791e-06  6.9364405e-08  1.6056343e-05  1.9929616e-05  1.6167616e-05
     12100   3.0469815e-06  7.8788209e-08  2.2528184e-05  1.9439219e-05  1.8592461e-05
     12200   3.0230976e-06  7.6905698e-08  1.7174866e-05  2.2762344e-05  1.8644347e-05
     12300   2.989695e-06   8.4025567e-08  2.217256e-05   2.2315957e-05  1.7209873e-05
     12400   2.9549655e-06  9.5349102e-08  2.0999778e-05  2.1329837e-05  2.2740879e-05
     12500   2.9312933e-06  8.8338633e-08  1.7201043e-05  2.1478837e-05  2.2880001e-05
     12600   2.8880812e-06  9.2611548e-08  1.998361e-05   2.2258213e-05  2.1592551e-05
     12700   2.8918029e-06  7.1751128e-08  1.79768e-05    2.0278761e-05  1.750943e-05 
     12800   2.8578819e-06  6.6928756e-08  1.5325399e-05  1.7374664e-05  1.8585938e-05
     12900   2.8437305e-06  6.7100136e-08  1.7168887e-05  1.872578e-05   1.7797986e-05
     13000   2.8220486e-06  6.7590758e-08  1.8405247e-05  1.7223641e-05  1.7111763e-05
     13100   2.7934139e-06  6.9933449e-08  1.7845309e-05  2.0236042e-05  1.5201314e-05
     13200   2.787539e-06   5.7126427e-08  1.6719612e-05  1.6474838e-05  1.3585968e-05
     13300   2.7491476e-06  7.0529245e-08  1.9455704e-05  1.8128496e-05  1.6867233e-05
     13400   2.7249987e-06  7.4289123e-08  1.81339e-05    1.9696749e-05  1.7592637e-05
     13500   2.7058762e-06  6.9449329e-08  1.7106487e-05  1.7525206e-05  1.8288513e-05
     13600   2.7004482e-06  5.3945045e-08  1.5143409e-05  1.4498931e-05  1.4486956e-05
     13700   2.6526086e-06  7.2210215e-08  1.6642888e-05  2.0119903e-05  1.6887737e-05
     13800   2.6421262e-06  6.9057173e-08  1.6784544e-05  1.9896939e-05  1.6920961e-05
     13900   2.6214317e-06  6.5764112e-08  1.6075136e-05  1.7681297e-05  1.6023454e-05
     14000   2.5941274e-06  6.497502e-08   1.9970018e-05  1.7275845e-05  1.3641576e-05
     14100   2.5998673e-06  4.4343761e-08  1.2584944e-05  1.5504131e-05  1.3279466e-05
     14200   2.5656299e-06  5.8871236e-08  1.6677998e-05  1.3928967e-05  1.6171145e-05
     14300   2.5362227e-06  6.3905433e-08  1.6848335e-05  1.6988185e-05  1.613681e-05 
     14400   2.4954875e-06  8.0704341e-08  1.9612141e-05  2.1539053e-05  1.6907295e-05
     14500   2.5135201e-06  4.5061295e-08  1.3684254e-05  1.4332277e-05  1.2195466e-05
     14600   2.4894962e-06  5.1432887e-08  1.4923729e-05  1.6951102e-05  1.26739e-05  
     14700   2.4616153e-06  5.8083273e-08  1.416612e-05   1.5820429e-05  1.4400006e-05
     14800   2.4333579e-06  7.1191051e-08  1.7258606e-05  2.0495169e-05  1.7042283e-05
     14900   2.4325482e-06  4.9364283e-08  1.217519e-05   1.5500785e-05  1.4550646e-05
     15000   2.4052422e-06  5.591491e-08   1.5949863e-05  1.4133927e-05  1.4775487e-05
     15100   2.3984602e-06  5.3374334e-08  1.5415042e-05  1.6363233e-05  1.3250658e-05
     15200   2.3888507e-06  4.2488964e-08  1.2498608e-05  1.6783941e-05  1.2716324e-05
     15300   2.3473167e-06  6.7771898e-08  1.677683e-05   1.5019241e-05  1.8347409e-05
     15400   2.343849e-06   5.9287853e-08  1.527338e-05   1.6987581e-05  1.4436284e-05
     15500   2.3244003e-06  5.8139696e-08  1.6183969e-05  1.6711352e-05  1.7430576e-05
     15600   2.3040845e-06  5.2948421e-08  1.5839799e-05  1.44314e-05    1.0869104e-05
     15700   2.2982176e-06  5.0957804e-08  1.2633425e-05  1.678839e-05   1.1870727e-05
     15800   2.2776879e-06  5.1526161e-08  1.1432209e-05  1.5026401e-05  1.3918396e-05
     15900   2.2441776e-06  6.5795761e-08  1.6672966e-05  1.4833349e-05  1.6709574e-05
     16000   2.2495994e-06  4.8264812e-08  1.2488749e-05  1.4640282e-05  1.2638821e-05
     16100   2.2302105e-06  4.8111764e-08  1.3632095e-05  1.624831e-05   1.3365955e-05
     16200   2.2185976e-06  4.4572818e-08  1.4014533e-05  1.3778572e-05  1.1907722e-05
     16300   2.2007519e-06  5.2711035e-08  1.1892125e-05  1.6397842e-05  1.4190915e-05
     16400   2.1812106e-06  4.5516629e-08  1.3199696e-05  1.6656719e-05  1.269337e-05 
     16500   2.1693685e-06  4.6901103e-08  1.8372606e-05  1.5191979e-05  1.1125701e-05
     16600   2.1532508e-06  5.2972354e-08  1.4942336e-05  1.606726e-05   1.2222075e-05
     16700   2.1568036e-06  3.5090816e-08  9.8790002e-06  1.0965256e-05  1.3930038e-05
     16800   2.1288622e-06  4.979752e-08   1.294807e-05   1.4431025e-05  1.3176299e-05
     16900   2.113178e-06   4.6558243e-08  1.3592254e-05  1.4483825e-05  1.1569335e-05
     17000   2.1132856e-06  4.1866731e-08  1.1685943e-05  1.3529713e-05  1.2056189e-05
     17100   2.0939136e-06  4.457175e-08   1.3298076e-05  1.4505258e-05  1.0975811e-05
     17200   2.0826684e-06  4.4549616e-08  1.2764279e-05  1.5504892e-05  1.2398732e-05
     17300   2.0754521e-06  4.1197788e-08  1.2803979e-05  1.1513082e-05  1.2865579e-05
     17400   2.0451445e-06  5.5382028e-08  1.4561787e-05  1.633124e-05   1.3316739e-05
     17500   2.0463205e-06  4.2023695e-08  1.1443542e-05  1.3436057e-05  1.2201739e-05
     17600   2.028475e-06   4.9096967e-08  1.3081917e-05  1.3442298e-05  1.4373356e-05
     17700   2.0241439e-06  3.9459563e-08  1.0744357e-05  1.1060518e-05  1.1831381e-05
     17800   2.0076213e-06  4.1755818e-08  1.2133481e-05  1.50807e-05    8.0214743e-06
     17900   1.9990691e-06  3.6200979e-08  1.2093766e-05  1.0672869e-05  1.0348587e-05
     18000   1.9785539e-06  4.9547775e-08  1.4255715e-05  1.4954562e-05  1.3125131e-05
     18100   1.9634386e-06  4.3776691e-08  1.3636546e-05  1.4942968e-05  1.1393505e-05
     18200   1.9588862e-06  4.1601885e-08  1.185283e-05   1.3502595e-05  1.1080443e-05
     18300   1.953297e-06   3.4318172e-08  1.06343e-05    1.2766461e-05  9.5464386e-06
     18400   1.9363135e-06  4.2375562e-08  1.2531752e-05  1.4242607e-05  1.2687464e-05
     18500   1.9234445e-06  3.8901522e-08  1.2412947e-05  1.1633754e-05  1.2890149e-05
     18600   1.9109737e-06  4.3699691e-08  1.3106742e-05  1.5582382e-05  1.1366539e-05
     18700   1.9035328e-06  3.7712545e-08  1.1444761e-05  1.1735894e-05  1.2764525e-05
     18800   1.8943598e-06  3.7128896e-08  1.2238308e-05  1.3901023e-05  1.0939751e-05
     18900   1.8859381e-06  3.4408318e-08  1.0673164e-05  1.0730326e-05  1.0118071e-05
     19000   1.8730799e-06  3.4183486e-08  9.7949767e-06  1.1934391e-05  9.4316351e-06
     19100   1.8670009e-06  2.7448644e-08  9.8239936e-06  1.071938e-05   8.3605652e-06
     19200   1.8315268e-06  5.2815834e-08  1.4445234e-05  1.388985e-05   1.4226425e-05
     19300   1.8223358e-06  5.014577e-08   1.5069977e-05  1.3967305e-05  1.4173911e-05
     19400   1.8257225e-06  3.523052e-08   1.2839529e-05  1.2230821e-05  1.1108054e-05
     19500   1.8131445e-06  3.5140327e-08  1.2320977e-05  1.1074975e-05  1.0623525e-05
     19600   1.8091784e-06  2.9887472e-08  9.8386789e-06  1.120619e-05   9.693674e-06 
     19700   1.796573e-06   3.6065994e-08  1.0088916e-05  1.2025219e-05  1.0093072e-05
     19800   1.7932329e-06  2.9159241e-08  1.0864997e-05  8.3360711e-06  1.0970874e-05
     19900   1.7861063e-06  2.946762e-08   1.0790399e-05  9.9527357e-06  7.7976073e-06
     20000   1.7628198e-06  4.0509594e-08  1.1795571e-05  1.0295581e-05  1.1691283e-05
Loop time of 0.527909 on 4 procs for 20000 steps with 2394 atoms

Performance: 327328883.549 tau/day, 37885.287 timesteps/s, 90.697 Matom-step/s
99.1% CPU use with 4 MPI tasks x 1 OpenMP threads

MPI task timing breakdown:
Section |  min time  |  avg time  |  max time  |%varavg| %total
---------------------------------------------------------------
Pair    | 0.11287    | 0.11867    | 0.12697    |   1.5 | 22.48
Bond    | 0.00051104 | 0.00051681 | 0.00052847 |   0.0 |  0.10
Neigh   | 0.028722   | 0.028896   | 0.029108   |   0.1 |  5.47
Comm    | 0.08657    | 0.093684   | 0.098459   |   1.5 | 17.75
Output  | 0.0014681  | 0.0017783  | 0.0022095  |   0.6 |  0.34
Modify  | 0.22657    | 0.23772    | 0.24818    |   2.0 | 45.03
Other   |            | 0.04665    |            |       |  8.84

Nlocal:          598.5 ave         627 max         588 min
Histogram: 3 0 0 0 0 0 0 0 0 1
Nghost:            230 ave         305 max         154 min
Histogram: 2 0 0 0 0 0 0 0 0 2
Neighs:         2809.5 ave        2912 max        2722 min
Histogram: 1 0 0 1 1 0 0 0 0 1

Total # of neighbors = 11238
Ave neighs/atom = 4.6942356
Ave special neighs/atom = 0
Neighbor list builds = 187
Dangerous builds = 0
unfix           wtemp

# Replicate cylinder and add bonds

replicate       4 1 1
Replication is creating a 4x1x1 = 4 times larger system...
  orthogonal box = (0 -0.0057804951 -2.5023171) to (80 40.003923 2.5020869)
  2 by 2 by 1 MPI processor grid
  9576 atoms
Finding 1-2 1-3 1-4 neighbors ...
  special bond factors lj:    0        1        1       
  special bond factors coul:  0        1        1       
     0 = max # of 1-2 neighbors
   101 = max # of special neighbors
  special bonds CPU = 0.000 seconds
  replicate CPU = 0.002 seconds

region          r1 block 0.0  20.0 EDGE EDGE EDGE EDGE side in units box
region          r2 block 20.0 40.0 EDGE EDGE EDGE EDGE side in units box
region          r3 block 40.0 60.0 EDGE EDGE EDGE EDGE side in units box
region          r4 block 60.0 80.0 EDGE EDGE EDGE EDGE side in units box

group           c1 region r1
2394 atoms in group c1
group           c2 region r2
2394 atoms in group c2
group           c3 region r3
2394 atoms in group c3
group           c4 region r4
2394 atoms in group c4

set             group c2 type 2
Setting atom values ...
  2394 settings made for type
set             group c3 type 3
Setting atom values ...
  2394 settings made for type
set             group c4 type 4
Setting atom values ...
  2394 settings made for type

velocity        all set 0.0 0.0 0.0
neighbor        1.0 bin

create_bonds    many c1 c1 1 0.0 1.5
Generated 0 of 6 mixed pair_coeff terms from geometric mixing rule
Neighbor list info ...
  update: every = 1 steps, delay = 0 steps, check = yes
  max neighbors/atom: 2000, page size: 100000
  master list distance cutoff = 2
  ghost atom cutoff = 2.6
  binsize = 1, bins = 80 41 6
  2 neighbor lists, perpetual/occasional/extra = 1 1 0
  (1) command create_bonds, occasional
      attributes: full, newton on
      pair build: full/bin
      stencil: full/bin/3d
      bin: standard
  (2) pair bpm/spring, perpetual
      attributes: half, newton on
      pair build: half/bin/newton
      stencil: half/bin/3d
      bin: standard
Added 13784 bonds, new total = 13784
Finding 1-2 1-3 1-4 neighbors ...
  special bond factors lj:    0        1        1       
  special bond factors coul:  0        1        1       
    17 = max # of 1-2 neighbors
   101 = max # of special neighbors
  special bonds CPU = 0.000 seconds
create_bonds    many c2 c2 2 0.0 1.5
Generated 0 of 6 mixed pair_coeff terms from geometric mixing rule
WARNING: Bonds are defined but no bond style is set (src/force.cpp:165)
WARNING: Likewise 1-2 special neighbor interactions != 1.0 (src/force.cpp:167)
Neighbor list info ...
  update: every = 1 steps, delay = 0 steps, check = yes
  max neighbors/atom: 2000, page size: 100000
  master list distance cutoff = 2
  ghost atom cutoff = 2.6
  binsize = 1, bins = 80 41 6
  2 neighbor lists, perpetual/occasional/extra = 1 1 0
  (1) command create_bonds, occasional
      attributes: full, newton on
      pair build: full/bin
      stencil: full/bin/3d
      bin: standard
  (2) pair bpm/spring, perpetual
      attributes: half, newton on
      pair build: half/bin/newton
      stencil: half/bin/3d
      bin: standard
Added 13784 bonds, new total = 27568
Finding 1-2 1-3 1-4 neighbors ...
  special bond factors lj:    0        1        1       
  special bond factors coul:  0        1        1       
    17 = max # of 1-2 neighbors
   101 = max # of special neighbors
  special bonds CPU = 0.001 seconds
create_bonds    many c3 c3 3 0.0 1.5
Generated 0 of 6 mixed pair_coeff terms from geometric mixing rule
WARNING: Bonds are defined but no bond style is set (src/force.cpp:165)
WARNING: Likewise 1-2 special neighbor interactions != 1.0 (src/force.cpp:167)
Neighbor list info ...
  update: every = 1 steps, delay = 0 steps, check = yes
  max neighbors/atom: 2000, page size: 100000
  master list distance cutoff = 2
  ghost atom cutoff = 2.6
  binsize = 1, bins = 80 41 6
  2 neighbor lists, perpetual/occasional/extra = 1 1 0
  (1) command create_bonds, occasional
      attributes: full, newton on
      pair build: full/bin
      stencil: full/bin/3d
      bin: standard
  (2) pair bpm/spring, perpetual
      attributes: half, newton on
      pair build: half/bin/newton
      stencil: half/bin/3d
      bin: standard
Added 13784 bonds, new total = 41352
Finding 1-2 1-3 1-4 neighbors ...
  special bond factors lj:    0        1        1       
  special bond factors coul:  0        1        1       
    17 = max # of 1-2 neighbors
   101 = max # of special neighbors
  special bonds CPU = 0.001 seconds
create_bonds    many c4 c4 4 0.0 1.5
Generated 0 of 6 mixed pair_coeff terms from geometric mixing rule
WARNING: Bonds are defined but no bond style is set (src/force.cpp:165)
WARNING: Likewise 1-2 special neighbor interactions != 1.0 (src/force.cpp:167)
Neighbor list info ...
  update: every = 1 steps, delay = 0 steps, check = yes
  max neighbors/atom: 2000, page size: 100000
  master list distance cutoff = 2
  ghost atom cutoff = 2.6
  binsize = 1, bins = 80 41 6
  2 neighbor lists, perpetual/occasional/extra = 1 1 0
  (1) command create_bonds, occasional
      attributes: full, newton on
      pair build: full/bin
      stencil: full/bin/3d
      bin: standard
  (2) pair bpm/spring, perpetual
      attributes: half, newton on
      pair build: half/bin/newton
      stencil: half/bin/3d
      bin: standard
Added 13784 bonds, new total = 55136
Finding 1-2 1-3 1-4 neighbors ...
  special bond factors lj:    0        1        1       
  special bond factors coul:  0        1        1       
    17 = max # of 1-2 neighbors
   101 = max # of special neighbors
  special bonds CPU = 0.001 seconds

neighbor        0.3 bin
special_bonds   lj 0.0 1.0 1.0 coul 1.0 1.0 1.0

bond_style      bpm/spring/plastic break no smooth no
bond_coeff      1 1.0 0 1.0 1.0
bond_coeff      2 1.0 0 1.0 0.022
bond_coeff      3 1.0 0 1.0 0.0185
bond_coeff      4 1.0 0 1.0 0.017

# apply load

region          anchor block EDGE EDGE EDGE 2.0 EDGE EDGE units box
region          load block EDGE EDGE 38.0 EDGE EDGE EDGE units box
group           anchor region anchor
540 atoms in group anchor
group           load region load
580 atoms in group load

variable        fload equal ramp(0.0,-0.0005)
fix             2 anchor setforce 0.0 0.0 0.0
fix             3 load addforce 0.0 0.0 v_fload
fix             4 all viscous 0.0016

compute         zmin1 c1 reduce min z
compute         zmin2 c2 reduce min z
compute         zmin3 c3 reduce min z
compute         zmin4 c4 reduce min z

thermo_style    custom step ke c_zmin1 c_zmin2 c_zmin3 c_zmin4
#dump            1 all custom 1000 atomDump id type x y z

run             30000

CITE-CITE-CITE-CITE-CITE-CITE-CITE-CITE-CITE-CITE-CITE-CITE-CITE

Your simulation uses code contributions which should be cited:

- BPM bond style: https://doi.org/10.1039/D3SM01373A

@Article{Clemmer2024,
 author =  {Clemmer, Joel T. and Monti, Joseph M. and Lechman, Jeremy B.},
 title =   {A soft departure from jamming: the compaction of deformable
            granular matter under high pressures},
 journal = {Soft Matter},
 year =    2024,
 volume =  20,
 number =  8,
 pages =   {1702--1718}
}

- BPM/spring/plastic bond style: https://doi.org/10.1016/j.powtec.2024.120563

@Article{Clemmer2025,
 author =  {Clemmer, Joel T. and Lechman, Jeremy B.},
 title =   {Onset and impact of plastic deformation in granular compaction},
 journal = {Powder Technology},
 year =    2025,
 volume =  452,
 number =  28,
 pages =   {120563}
}

CITE-CITE-CITE-CITE-CITE-CITE-CITE-CITE-CITE-CITE-CITE-CITE-CITE

Generated 0 of 6 mixed pair_coeff terms from geometric mixing rule
Neighbor list info ...
  update: every = 1 steps, delay = 0 steps, check = yes
  max neighbors/atom: 2000, page size: 100000
  master list distance cutoff = 1.3
  ghost atom cutoff = 2.6
  binsize = 0.65, bins = 124 62 8
  1 neighbor lists, perpetual/occasional/extra = 1 0 0
  (1) pair bpm/spring, perpetual
      attributes: half, newton on
      pair build: half/bin/newton
      stencil: half/bin/3d
      bin: standard
Per MPI rank memory allocation (min/avg/max) = 18.54 | 18.54 | 18.54 Mbytes
   Step         KinEng        c_zmin1        c_zmin2        c_zmin3        c_zmin4    
     20000   0             -2.5009949     -2.5009949     -2.5009949     -2.5009949    
     20100   1.202019e-12  -2.5009949     -2.5009949     -2.5009949     -2.5009949    
     20200   1.6105934e-11 -2.5009949     -2.5009949     -2.5009949     -2.5009949    
     20300   7.1073179e-11 -2.500995      -2.500995      -2.500995      -2.500995     
     20400   2.0133333e-10 -2.5009951     -2.5009951     -2.5009951     -2.5009951    
     20500   4.4856442e-10 -2.5016252     -2.5016252     -2.5016252     -2.5016252    
     20600   8.5936358e-10 -2.5026736     -2.5026736     -2.5026736     -2.5026736    
     20700   1.4848437e-09 -2.5040363     -2.5040363     -2.5040363     -2.5040363    
     20800   2.3768231e-09 -2.5057397     -2.5057397     -2.5057397     -2.5057397    
     20900   3.5814496e-09 -2.5078072     -2.5078072     -2.5078072     -2.5078072    
     21000   5.1418029e-09 -2.5102598     -2.5102598     -2.5102598     -2.5102598    
     21100   7.1048324e-09 -2.5131179     -2.5131179     -2.5131179     -2.5131179    
     21200   9.5255674e-09 -2.5164049     -2.5164049     -2.5164049     -2.5164049    
     21300   1.2468122e-08 -2.5201422     -2.5201422     -2.5201422     -2.5201422    
     21400   1.6004301e-08 -2.5243357     -2.5243357     -2.5243357     -2.5243357    
     21500   2.0213334e-08 -2.5289738     -2.5289738     -2.5289738     -2.5289738    
     21600   2.5183761e-08 -2.5340394     -2.5340394     -2.5340394     -2.5340394    
     21700   3.1011377e-08 -2.5395218     -2.5395218     -2.5395218     -2.5395218    
     21800   3.779222e-08  -2.5454224     -2.5454224     -2.5454224     -2.5454224    
     21900   4.5615101e-08 -2.5517544     -2.5517544     -2.5517544     -2.5517544    
     22000   5.4556915e-08 -2.55854       -2.55854       -2.55854       -2.55854      
     22100   6.4682084e-08 -2.5658075     -2.5658075     -2.5658075     -2.5658075    
     22200   7.6043867e-08 -2.5735884     -2.5735884     -2.5735884     -2.5735884    
     22300   8.8684299e-08 -2.5819166     -2.5819166     -2.5819166     -2.5819166    
     22400   1.0263419e-07 -2.5908256     -2.5908256     -2.5908256     -2.5908256    
     22500   1.1791555e-07 -2.6003452     -2.6003452     -2.6003452     -2.6003452    
     22600   1.3454552e-07 -2.6104984     -2.6104984     -2.6104984     -2.6104984    
     22700   1.5253917e-07 -2.6213045     -2.6213045     -2.6213045     -2.6213045    
     22800   1.7190894e-07 -2.6327844     -2.6327844     -2.6327844     -2.6327844    
     22900   1.9266127e-07 -2.6449636     -2.6449636     -2.6449636     -2.6449636    
     23000   2.1479353e-07 -2.657871      -2.657871      -2.657871      -2.657871     
     23100   2.3829255e-07 -2.6715338     -2.6715338     -2.6715338     -2.6715338    
     23200   2.6313346e-07 -2.6859721     -2.6859721     -2.6859721     -2.6859721    
     23300   2.8927838e-07 -2.7011966     -2.7011966     -2.7011966     -2.7011966    
     23400   3.1667555e-07 -2.7172069     -2.7172069     -2.7172069     -2.7172069    
     23500   3.4526034e-07 -2.7339935     -2.7339935     -2.7339935     -2.7339935    
     23600   3.7495844e-07 -2.7515386     -2.7515386     -2.7515386     -2.7515386    
     23700   4.0568968e-07 -2.7698186     -2.7698186     -2.7698186     -2.7698186    
     23800   4.3737067e-07 -2.7888065     -2.7888065     -2.7888065     -2.7888065    
     23900   4.6991615e-07 -2.8084758     -2.8084758     -2.8084758     -2.8084758    
     24000   5.0323987e-07 -2.8288033     -2.8288033     -2.8288033     -2.8288033    
     24100   5.3725527e-07 -2.8497697     -2.8497697     -2.8497697     -2.8497697    
     24200   5.7187544e-07 -2.8713571     -2.8713571     -2.8713571     -2.8713571    
     24300   6.0701186e-07 -2.8935472     -2.8935472     -2.8935472     -2.8935472    
     24400   6.4257232e-07 -2.9163195     -2.9163195     -2.9163195     -2.9163195    
     24500   6.7845941e-07 -2.9396525     -2.9396525     -2.9396525     -2.9396525    
     24600   7.1457017e-07 -2.9635254     -2.9635254     -2.9635254     -2.9635254    
     24700   7.5079647e-07 -2.9879207     -2.9879207     -2.9879207     -2.9879207    
     24800   7.8702554e-07 -3.0128257     -3.0128257     -3.0128257     -3.0128257    
     24900   8.2314076e-07 -3.0382328     -3.0382328     -3.0382328     -3.0382328    
     25000   8.5902312e-07 -3.0641396     -3.0641396     -3.0641396     -3.0641396    
     25100   8.9455338e-07 -3.0905479     -3.0905479     -3.0905479     -3.0905479    
     25200   9.2961421e-07 -3.1174612     -3.1174612     -3.1174612     -3.1174612    
     25300   9.6409149e-07 -3.1448825     -3.1448825     -3.1448825     -3.1448825    
     25400   9.9787475e-07 -3.172811      -3.172811      -3.172811      -3.172811     
     25500   1.0308572e-06 -3.2012409     -3.2012409     -3.2012409     -3.2012409    
     25600   1.0629356e-06 -3.2301607     -3.2301607     -3.2301607     -3.2301607    
     25700   1.0940102e-06 -3.2595552     -3.2595552     -3.2595552     -3.2595552    
     25800   1.1239839e-06 -3.2894062     -3.2894062     -3.2894062     -3.2894062    
     25900   1.152762e-06  -3.3196939     -3.3196939     -3.3196939     -3.3196939    
     26000   1.1802517e-06 -3.3503971     -3.3503971     -3.3503971     -3.3503971    
     26100   1.2063636e-06 -3.3814924     -3.3814924     -3.3814924     -3.3814924    
     26200   1.2310134e-06 -3.4129538     -3.4129538     -3.4129538     -3.4129538    
     26300   1.254123e-06  -3.4447517     -3.4447517     -3.4447517     -3.4447517    
     26400   1.2756231e-06 -3.476853      -3.476853      -3.476853      -3.476853     
     26500   1.2954538e-06 -3.5092211     -3.5092211     -3.5092211     -3.5092211    
     26600   1.3135658e-06 -3.5418172     -3.5418172     -3.5418172     -3.5418172    
     26700   1.329921e-06  -3.5746018     -3.5746018     -3.5746018     -3.5746018    
     26800   1.344492e-06  -3.6075369     -3.6075369     -3.6075369     -3.6075369    
     26900   1.3572602e-06 -3.6405884     -3.6405884     -3.6405884     -3.6405884    
     27000   1.3682149e-06 -3.6737266     -3.6737266     -3.6737266     -3.6737266    
     27100   1.3773515e-06 -3.7069264     -3.7069264     -3.7069264     -3.7069264    
     27200   1.3846706e-06 -3.7401668     -3.7401668     -3.7401668     -3.7401668    
     27300   1.3901775e-06 -3.7734295     -3.7734295     -3.7734295     -3.7734295    
     27400   1.3938817e-06 -3.8066981     -3.8066981     -3.8066981     -3.8066981    
     27500   1.3957977e-06 -3.8399577     -3.8399577     -3.8399577     -3.8399577    
     27600   1.3959452e-06 -3.8731944     -3.8731944     -3.8731944     -3.8731944    
     27700   1.3943501e-06 -3.9063958     -3.9063958     -3.9063958     -3.9063958    
     27800   1.391045e-06  -3.9395507     -3.9395507     -3.9395507     -3.9395507    
     27900   1.3860688e-06 -3.9726499     -3.9726499     -3.9726499     -3.9726499    
     28000   1.3794667e-06 -4.0056855     -4.0056855     -4.0056855     -4.0056855    
     28100   1.3712887e-06 -4.0386502     -4.0386502     -4.0386502     -4.0386502    
     28200   1.3615895e-06 -4.0715364     -4.0715364     -4.0715364     -4.0715364    
     28300   1.3504268e-06 -4.1043346     -4.1043346     -4.1043346     -4.1043346    
     28400   1.3378608e-06 -4.1370322     -4.1370322     -4.1370322     -4.1370322    
     28500   1.3239535e-06 -4.1696134     -4.1696134     -4.1696134     -4.1696134    
     28600   1.3087686e-06 -4.2020592     -4.2020592     -4.2020592     -4.2020592    
     28700   1.2923715e-06 -4.2343479     -4.2343479     -4.2343479     -4.2343479    
     28800   1.2748297e-06 -4.2664563     -4.2664563     -4.2664563     -4.2664563    
     28900   1.2562137e-06 -4.2983608     -4.2983608     -4.2983608     -4.2983608    
     29000   1.2365966e-06 -4.3300381     -4.3300381     -4.3300381     -4.3300381    
     29100   1.2160547e-06 -4.3614655     -4.3614655     -4.3614655     -4.3614655    
     29200   1.1946671e-06 -4.3926215     -4.3926215     -4.3926215     -4.3926215    
     29300   1.1725157e-06 -4.4234856     -4.4234856     -4.4234856     -4.4234856    
     29400   1.1496838e-06 -4.4540381     -4.4540381     -4.4540381     -4.4540381    
     29500   1.1262559e-06 -4.4842608     -4.4842608     -4.4842608     -4.4842608    
     29600   1.1023156e-06 -4.514137      -4.514137      -4.514137      -4.514137     
     29700   1.0779457e-06 -4.5436524     -4.5436524     -4.5436524     -4.5436524    
     29800   1.0532264e-06 -4.5727958     -4.5727958     -4.5727958     -4.5727958    
     29900   1.0282354e-06 -4.6015593     -4.6015593     -4.6015593     -4.6015593    
     30000   1.0030472e-06 -4.629939      -4.629939      -4.629939      -4.629939     
     30100   9.7773283e-07 -4.6579345     -4.6579345     -4.6579345     -4.6579345    
     30200   9.5236031e-07 -4.6855477     -4.6855477     -4.6855477     -4.6855477    
     30300   9.2699472e-07 -4.7127828     -4.7127828     -4.7127828     -4.7127828    
     30400   9.0169834e-07 -4.7396448     -4.7396448     -4.7396448     -4.7396448    
     30500   8.7653079e-07 -4.766139      -4.766139      -4.766139      -4.766139     
     30600   8.5154887e-07 -4.7922702     -4.7922702     -4.7922702     -4.7922702    
     30700   8.2680636e-07 -4.8180428     -4.8180428     -4.8180428     -4.8180428    
     30800   8.0235365e-07 -4.8434606     -4.8434606     -4.8434606     -4.8434606    
     30900   7.7823736e-07 -4.868527      -4.868527      -4.868527      -4.868527     
     31000   7.5449992e-07 -4.8932447     -4.8932447     -4.8932447     -4.8932447    
     31100   7.311795e-07  -4.9176157     -4.9176157     -4.9176157     -4.9176157    
     31200   7.0831004e-07 -4.9416412     -4.9416412     -4.9416412     -4.9416412    
     31300   6.8592164e-07 -4.965321      -4.965321      -4.965321      -4.965321     
     31400   6.6404105e-07 -4.9886537     -4.9886537     -4.9886537     -4.9886537    
     31500   6.4269229e-07 -5.0116367     -5.0116367     -5.0116367     -5.0116367    
     31600   6.2189725e-07 -5.0342662     -5.0342662     -5.0342662     -5.0342662    
     31700   6.016762e-07  -5.0565385     -5.0565385     -5.0565385     -5.0565385    
     31800   5.8204803e-07 -5.0784499     -5.0784499     -5.0784499     -5.0784499    
     31900   5.6303028e-07 -5.0999982     -5.0999982     -5.0999982     -5.0999982    
     32000   5.4463895e-07 -5.1211826     -5.1211826     -5.1211826     -5.1211826    
     32100   5.2688813e-07 -5.1420044     -5.1420044     -5.1420044     -5.1420044    
     32200   5.0978968e-07 -5.1624671     -5.1624671     -5.1624671     -5.1624671    
     32300   4.9335284e-07 -5.1825764     -5.1825764     -5.1825764     -5.1825764    
     32400   4.7758408e-07 -5.2023397     -5.2023397     -5.2023397     -5.2023397    
     32500   4.6248703e-07 -5.2217663     -5.2217663     -5.2217663     -5.2217663    
     32600   4.4806319e-07 -5.240867      -5.240867      -5.240867      -5.240867     
     32700   4.3431458e-07 -5.2596542     -5.2596542     -5.2596542     -5.2596542    
     32800   4.2123847e-07 -5.2781417     -5.2781417     -5.2781417     -5.2781417    
     32900   4.0882949e-07 -5.2963447     -5.2963447     -5.2963447     -5.2963451    
     33000   3.9708102e-07 -5.3142796     -5.3142796     -5.3142796     -5.3142814    
     33100   3.8598689e-07 -5.3319633     -5.3319633     -5.3319633     -5.3319673    
     33200   3.7553866e-07 -5.349413      -5.349413      -5.349413      -5.349413     
     33300   3.6572643e-07 -5.3666459     -5.3666459     -5.3666459     -5.3666254    
     33400   3.5653967e-07 -5.3836778     -5.3836778     -5.3836778     -5.3836206    
     33500   3.4796832e-07 -5.4005236     -5.4005236     -5.4005236     -5.4004202    
     33600   3.4000018e-07 -5.4171968     -5.4171968     -5.4171968     -5.4170411    
     33700   3.3262176e-07 -5.4337092     -5.4337092     -5.4337092     -5.4334958    
     33800   3.2581906e-07 -5.4500712     -5.4500712     -5.4500712     -5.4497979    
     33900   3.1957794e-07 -5.4662923     -5.4662923     -5.4662923     -5.4659609    
     34000   3.138849e-07  -5.4823809     -5.4823809     -5.4823809     -5.4819978    
     34100   3.0872836e-07 -5.4983449     -5.4983449     -5.4983449     -5.4979206    
     34200   3.040957e-07  -5.5141917     -5.5141917     -5.5141917     -5.5137391    
     34300   2.9997511e-07 -5.5299282     -5.5299282     -5.5299287     -5.529461     
     34400   2.9635672e-07 -5.5455614     -5.5455614     -5.5455633     -5.5450938    
     34500   2.9323208e-07 -5.5610981     -5.5610981     -5.5611015     -5.5606468    
     34600   2.9059352e-07 -5.5765455     -5.5765455     -5.5765444     -5.5761314    
     34700   2.8843551e-07 -5.5919114     -5.5919114     -5.5918928     -5.5915586    
     34800   2.8675322e-07 -5.6072043     -5.6072043     -5.6071567     -5.6069383    
     34900   2.8554064e-07 -5.622434      -5.622434      -5.6223512     -5.622279     
     35000   2.8479172e-07 -5.6376116     -5.6376116     -5.6374916     -5.6375891    
     35100   2.8450082e-07 -5.6527494     -5.6527494     -5.6525927     -5.6528782    
     35200   2.8466293e-07 -5.667861      -5.667861      -5.6676668     -5.6681571    
     35300   2.8527188e-07 -5.6829606     -5.6829606     -5.6827276     -5.6834383    
     35400   2.8632137e-07 -5.6980633     -5.6980633     -5.6977926     -5.6987351    
     35500   2.8780506e-07 -5.7131842     -5.7131842     -5.7128803     -5.7140609    
     35600   2.8971664e-07 -5.7283384     -5.7283384     -5.7280076     -5.7294304    
     35700   2.9204985e-07 -5.7435408     -5.7435408     -5.7431909     -5.7448587    
     35800   2.9480005e-07 -5.7588054     -5.7588054     -5.7584453     -5.7603606    
     35900   2.9796418e-07 -5.7741459     -5.7741459     -5.773786      -5.7759497    
     36000   3.0153642e-07 -5.789575      -5.789575      -5.7892287     -5.7916384    
     36100   3.0551004e-07 -5.8051042     -5.8051042     -5.8047879     -5.8074377    
     36200   3.0987845e-07 -5.820744      -5.820744      -5.8204756     -5.8233562    
     36300   3.1463523e-07 -5.8365035     -5.8365035     -5.8363        -5.8394021    
     36400   3.197725e-07  -5.8523905     -5.8523905     -5.8522675     -5.8555866    
     36500   3.2528252e-07 -5.868411      -5.868411      -5.8683834     -5.8719203    
     36600   3.3115849e-07 -5.88457       -5.88457       -5.8846531     -5.8884101    
     36700   3.3739194e-07 -5.9008713     -5.9008713     -5.901081      -5.9050627    
     36800   3.4397431e-07 -5.9173175     -5.9173175     -5.917669      -5.9218859    
     36900   3.5089722e-07 -5.933911      -5.933911      -5.9344176     -5.9388873    
     37000   3.5815239e-07 -5.9506536     -5.9506536     -5.9513267     -5.956073     
     37100   3.6573155e-07 -5.9675471     -5.9675471     -5.9683971     -5.9734472    
     37200   3.7362628e-07 -5.9845933     -5.9845933     -5.9856307     -5.9910128    
     37300   3.8182859e-07 -6.0017947     -6.0017947     -6.0030294     -6.008772     
     37400   3.9033192e-07 -6.0191536     -6.0191536     -6.0205959     -6.0267266    
     37500   3.991285e-07  -6.0366731     -6.0366731     -6.038334      -6.0448792    
     37600   4.0821582e-07 -6.0543565     -6.0543565     -6.0562481     -6.0632333    
     37700   4.1759088e-07 -6.0722075     -6.0722075     -6.0743432     -6.081791     
     37800   4.2724584e-07 -6.0902305     -6.0902305     -6.0926254     -6.1005558    
     37900   4.371683e-07  -6.1084299     -6.10843       -6.1111007     -6.1195329    
     38000   4.4734569e-07 -6.1268107     -6.1268115     -6.129773      -6.1387253    
     38100   4.57766e-07   -6.1453778     -6.1453808     -6.1486467     -6.1581357    
     38200   4.6841873e-07 -6.1641361     -6.164141      -6.16773       -6.1777671    
     38300   4.792922e-07  -6.1830901     -6.1830885     -6.1870311     -6.1976196    
     38400   4.9037163e-07 -6.2022437     -6.2022199     -6.2065552     -6.217691     
     38500   5.0164208e-07 -6.2216001     -6.2215406     -6.226307      -6.2379832    
     38600   5.1308908e-07 -6.2411615     -6.2410584     -6.2462927     -6.2585035    
     38700   5.2469603e-07 -6.2609289     -6.2607793     -6.2665175     -6.2792592    
     38800   5.3644659e-07 -6.2809023     -6.2807033     -6.2869844     -6.3002545    
     38900   5.483223e-07  -6.3010806     -6.300828      -6.3076942     -6.32149      
     39000   5.6030741e-07 -6.3214615     -6.3211532     -6.3286457     -6.3429654    
     39100   5.7238672e-07 -6.3420419     -6.34168       -6.3498365     -6.3646835    
     39200   5.845539e-07  -6.3628174     -6.3624077     -6.3712629     -6.3866505    
     39300   5.9679909e-07 -6.3837834     -6.3833354     -6.3929204     -6.4088722    
     39400   6.0910649e-07 -6.4049342     -6.4044594     -6.4148038     -6.4313512    
     39500   6.2146126e-07 -6.4262637     -6.4257744     -6.4369092     -6.4540878    
     39600   6.3385216e-07 -6.4477654     -6.4472765     -6.4592287     -6.4770799    
     39700   6.4626938e-07 -6.4694329     -6.4689636     -6.4817543     -6.5003264    
     39800   6.5870162e-07 -6.4912594     -6.490833      -6.5044809     -6.5238328    
     39900   6.7113669e-07 -6.5132387     -6.5128793     -6.527399      -6.5475968    
     40000   6.8356182e-07 -6.5353648     -6.5350954     -6.5504965     -6.5716093    
     40100   6.9596736e-07 -6.5576322     -6.5574751     -6.5737663     -6.5958643    
     40200   7.0834283e-07 -6.5800359     -6.5800124     -6.5972084     -6.6203608    
     40300   7.2067309e-07 -6.6025713     -6.6027021     -6.6208229     -6.6450979    
     40400   7.3294348e-07 -6.6252343     -6.6255382     -6.6446087     -6.6700765    
     40500   7.4513992e-07 -6.6480211     -6.6485154     -6.6685628     -6.6952993    
     40600   7.5724814e-07 -6.6709283     -6.6716299     -6.6926835     -6.7207675    
     40700   7.6926014e-07 -6.6939522     -6.694879      -6.716975      -6.74648      
     40800   7.8117593e-07 -6.7170895     -6.7182611     -6.741447      -6.7724384    
     40900   7.9299948e-07 -6.7403365     -6.7417749     -6.7661071     -6.7986454    
     41000   8.0472603e-07 -6.7636894     -6.765418      -6.7909599     -6.8251013    
     41100   8.1635408e-07 -6.787144      -6.7891866     -6.8160053     -6.8518085    
     41200   8.2787838e-07 -6.8106957     -6.8130736     -6.8412404     -6.8787685    
     41300   8.3928759e-07 -6.8343391     -6.8370704     -6.8666702     -6.90598      
     41400   8.5057607e-07 -6.8580686     -6.8611741     -6.8922971     -6.9334402    
     41500   8.6173713e-07 -6.8818777     -6.8853801     -6.9181146     -6.9611487    
     41600   8.7276364e-07 -6.9057592     -6.9096802     -6.9441173     -6.9891025    
     41700   8.8364921e-07 -6.9297054     -6.9340697     -6.9703041     -7.0172979    
     41800   8.9438168e-07 -6.9537083     -6.9585483     -6.9966717     -7.0457296    
     41900   9.0495111e-07 -6.9777593     -6.9831167     -7.0232187     -7.0743945    
     42000   9.1535254e-07 -7.0018497     -7.0077743     -7.049948      -7.1033023    
     42100   9.2558563e-07 -7.0259707     -7.0325181     -7.0768595     -7.1324632    
     42200   9.3565265e-07 -7.0501135     -7.0573428     -7.103949      -7.1618803    
     42300   9.4555944e-07 -7.0742696     -7.0822409     -7.1312134     -7.191549     
     42400   9.5531027e-07 -7.0984308     -7.1072031     -7.1586505     -7.2214612    
     42500   9.6491292e-07 -7.1225892     -7.1322198     -7.1862568     -7.2516079    
     42600   9.7436942e-07 -7.1467374     -7.157284      -7.2140311     -7.2819748    
     42700   9.8369029e-07 -7.1708687     -7.1823851     -7.2419711     -7.3125468    
     42800   9.9288517e-07 -7.1949768     -7.2075164     -7.2700718     -7.3433137    
     42900   1.0019713e-06 -7.2190561     -7.2326756     -7.2983261     -7.3742736    
     43000   1.0109648e-06 -7.2431014     -7.257855      -7.3267308     -7.4054319    
     43100   1.0198783e-06 -7.2671083     -7.2830469     -7.3552833     -7.4367949    
     43200   1.028724e-06  -7.2910727     -7.3082472     -7.3839797     -7.4683672    
     43300   1.0375129e-06 -7.3149908     -7.3334554     -7.4128172     -7.5001533    
     43400   1.0462445e-06 -7.3388592     -7.3586695     -7.441793      -7.5321535    
     43500   1.0549212e-06 -7.3626746     -7.3838871     -7.4709148     -7.5643592    
     43600   1.0635519e-06 -7.3864337     -7.4091048     -7.5001973     -7.5967592    
     43700   1.0721409e-06 -7.410133      -7.4343208     -7.52965       -7.6293494    
     43800   1.0806982e-06 -7.4337691     -7.4595391     -7.5592778     -7.6621274    
     43900   1.0892319e-06 -7.4573383     -7.484768      -7.5890778     -7.6950892    
     44000   1.0977491e-06 -7.4808368     -7.5100161     -7.619043      -7.7282436    
     44100   1.106266e-06  -7.5042603     -7.5352887     -7.6491652     -7.761611     
     44200   1.1147922e-06 -7.5276046     -7.5605864     -7.6794345     -7.7952108    
     44300   1.1233618e-06 -7.5508653     -7.585906      -7.7098423     -7.8290557    
     44400   1.1319952e-06 -7.5740377     -7.6112435     -7.7403832     -7.8631509    
     44500   1.1406923e-06 -7.5971171     -7.6365998     -7.7710572     -7.8974954    
     44600   1.1494662e-06 -7.6200989     -7.6619775     -7.8018698     -7.9320833    
     44700   1.1583323e-06 -7.6429787     -7.6873688     -7.8328287     -7.9669118    
     44800   1.1672987e-06 -7.665752      -7.7127674     -7.863939      -8.0019843    
     44900   1.1763751e-06 -7.6884149     -7.7381842     -7.8952052     -8.0373001    
     45000   1.1855733e-06 -7.7109639     -7.7636284     -7.926626      -8.0728511    
     45100   1.1949016e-06 -7.7333958     -7.7891031     -7.9581919     -8.1086306    
     45200   1.2043676e-06 -7.7557081     -7.8146115     -7.9898894     -8.1446385    
     45300   1.2139751e-06 -7.7778988     -7.8401566     -8.0217181     -8.1808772    
     45400   1.223728e-06  -7.7999665     -7.8657351     -8.0536811     -8.2173544    
     45500   1.2336377e-06 -7.8219104     -7.8913421     -8.0857738     -8.2540767    
     45600   1.243714e-06  -7.8437302     -7.9169775     -8.1179953     -8.2910417    
     45700   1.2539539e-06 -7.865426      -7.9426454     -8.1503589     -8.3282523    
     45800   1.2643629e-06 -7.8869986     -7.9683493     -8.1828832     -8.3657154    
     45900   1.2749579e-06 -7.9084488     -7.994092      -8.2155819     -8.4034243    
     46000   1.2857585e-06 -7.9297778     -8.019881      -8.2484638     -8.4413591    
     46100   1.2967898e-06 -7.9509872     -8.0457205     -8.2815334     -8.4794994    
     46200   1.3080626e-06 -7.9720785     -8.0716108     -8.3147898     -8.517832     
     46300   1.3195812e-06 -7.9930533     -8.0975531     -8.3482305     -8.5563551    
     46400   1.3313507e-06 -8.0139131     -8.1235486     -8.3818528     -8.5950769    
     46500   1.3433779e-06 -8.0346594     -8.149598      -8.4156583     -8.6340068    
     46600   1.3556688e-06 -8.0552936     -8.1757031     -8.4496547     -8.6731492    
     46700   1.3682251e-06 -8.0758169     -8.2018641     -8.4838443     -8.7125043    
     46800   1.3810458e-06 -8.0962304     -8.228084      -8.518225      -8.7520773    
     46900   1.3941379e-06 -8.1165349     -8.2543622     -8.5527951     -8.7918781    
     47000   1.4075107e-06 -8.1367315     -8.2806986     -8.5875532     -8.8319166    
     47100   1.421175e-06  -8.156821      -8.3071025     -8.6225026     -8.8721986    
     47200   1.4351332e-06 -8.1768042     -8.333582      -8.6576467     -8.9127238    
     47300   1.4493917e-06 -8.1966822     -8.3601431     -8.6929861     -8.9534944    
     47400   1.4639553e-06 -8.2164561     -8.3867914     -8.7285184     -8.9945213    
     47500   1.4788337e-06 -8.2361272     -8.4135287     -8.7642428     -9.0358221    
     47600   1.4940326e-06 -8.2556971     -8.4403584     -8.8001694     -9.0774116    
     47700   1.5095512e-06 -8.2751677     -8.4672855     -8.8363074     -9.119294     
     47800   1.525396e-06  -8.2945414     -8.4943114     -8.8726519     -9.1614703    
     47900   1.5415805e-06 -8.3138206     -8.5214321     -8.9091853     -9.2039378    
     48000   1.5581229e-06 -8.3330084     -8.5486422     -8.9458957     -9.2466939    
     48100   1.5750361e-06 -8.352108      -8.5759399     -8.9827826     -9.289738     
     48200   1.5923241e-06 -8.3711232     -8.6033239     -9.0198494     -9.3330717    
     48300   1.6100035e-06 -8.3900579     -8.6307941     -9.0571014     -9.3766977    
     48400   1.6280813e-06 -8.4089162     -8.6583543     -9.0945479     -9.4206169    
     48500   1.6465673e-06 -8.4277025     -8.6860094     -9.1321987     -9.4648326    
     48600   1.6654705e-06 -8.4464213     -8.7137637     -9.1700517     -9.5093468    
     48700   1.6847885e-06 -8.465077      -8.7416215     -9.2081002     -9.5541527    
     48800   1.7045243e-06 -8.483674      -8.7695875     -9.2463444     -9.5992407    
     48900   1.7246837e-06 -8.5022168     -8.7976649     -9.2847874     -9.6446041    
     49000   1.7452724e-06 -8.5207094     -8.8258592     -9.323434      -9.6902401    
     49100   1.7663046e-06 -8.5391561     -8.8541741     -9.3622952     -9.7361435    
     49200   1.7877893e-06 -8.5575606     -8.8826072     -9.4013836     -9.7823089    
     49300   1.8097296e-06 -8.5759265     -8.9111562     -9.4407079     -9.8287301    
     49400   1.8321348e-06 -8.5942573     -8.9398259     -9.4802747     -9.8754055    
     49500   1.8550083e-06 -8.612556      -8.9686281     -9.5200949     -9.9223416    
     49600   1.8783529e-06 -8.6308258     -8.9975721     -9.560185      -9.9695363    
     49700   1.9021705e-06 -8.6490693     -9.0266574     -9.6005557     -10.016985    
     49800   1.9264666e-06 -8.6672894     -9.0558821     -9.6411989     -10.064697    
     49900   1.9512471e-06 -8.6854886     -9.0852485     -9.6821043     -10.112681    
     50000   1.9765155e-06 -8.7036695     -9.1147646     -9.7232722     -10.160946    
Loop time of 7.41147 on 4 procs for 30000 steps with 9576 atoms

Performance: 34972801.936 tau/day, 4047.778 timesteps/s, 38.762 Matom-step/s
99.4% CPU use with 4 MPI tasks x 1 OpenMP threads

MPI task timing breakdown:
Section |  min time  |  avg time  |  max time  |%varavg| %total
---------------------------------------------------------------
Pair    | 0.36908    | 0.37746    | 0.38339    |   0.9 |  5.09
Bond    | 5.9821     | 6.0032     | 6.0331     |   0.9 | 81.00
Neigh   | 0.056749   | 0.056811   | 0.056896   |   0.0 |  0.77
Comm    | 0.17361    | 0.20437    | 0.23207    |   6.1 |  2.76
Output  | 0.0083876  | 0.0090944  | 0.010384   |   0.8 |  0.12
Modify  | 0.56876    | 0.60478    | 0.64205    |   4.3 |  8.16
Other   |            | 0.1557     |            |       |  2.10

Nlocal:           2394 ave        2420 max        2368 min
Histogram: 1 0 1 0 0 0 0 1 0 1
Nghost:          311.5 ave         318 max         308 min
Histogram: 2 0 0 0 1 0 0 0 0 1
Neighs:        11240.8 ave       11435 max       11047 min
Histogram: 1 1 0 0 0 0 0 0 1 1

Total # of neighbors = 44963
Ave neighs/atom = 4.6953843
Ave special neighs/atom = 11.515455
Neighbor list builds = 52
Dangerous builds = 0

# hold load

unfix           3
fix             3 load addforce 0.0 0.0 -0.0005
run             50000
Generated 0 of 6 mixed pair_coeff terms from geometric mixing rule
Per MPI rank memory allocation (min/avg/max) = 18.68 | 18.68 | 18.68 Mbytes
   Step         KinEng        c_zmin1        c_zmin2        c_zmin3        c_zmin4    
     50000   1.9765155e-06 -8.7036695     -9.1147646     -9.7232722     -10.160946    
     50100   2.0005529e-06 -8.7218147     -9.1444184     -9.7646805     -10.209482    
     50200   2.0216514e-06 -8.7398552     -9.1741501     -9.8062574     -10.258228    
     50300   2.0398481e-06 -8.7577346     -9.2039123     -9.8479521     -10.307132    
     50400   2.0551844e-06 -8.7754132     -9.2336703     -9.8897319     -10.356169    
     50500   2.0677198e-06 -8.7928589     -9.263397      -9.9315656     -10.405318    
     50600   2.0775207e-06 -8.8100439     -9.2930665     -9.9734199     -10.454559    
     50700   2.0846613e-06 -8.8269452     -9.3226525     -10.015267     -10.503867    
     50800   2.0892207e-06 -8.8435435     -9.3521279     -10.057084     -10.553219    
     50900   2.09127e-06   -8.859822      -9.381468      -10.098845     -10.602599    
     51000   2.0908733e-06 -8.8757662     -9.4106498     -10.140524     -10.652       
     51100   2.0881002e-06 -8.8913615     -9.43965       -10.182101     -10.701403    
     51200   2.0830154e-06 -8.9065899     -9.4684535     -10.223555     -10.750789    
     51300   2.0756961e-06 -8.9214337     -9.4970444     -10.264861     -10.800147    
     51400   2.0662137e-06 -8.9358859     -9.525406      -10.306001     -10.849467    
     51500   2.0546499e-06 -8.9499517     -9.5535264     -10.346953     -10.898739    
     51600   2.0411018e-06 -8.963641      -9.5813981     -10.387704     -10.947948    
     51700   2.0256736e-06 -8.9769587     -9.6090199     -10.428249     -10.997075    
     51800   2.0084887e-06 -8.9899016     -9.6363935     -10.468588     -11.046108    
     51900   1.9896592e-06 -9.0024589     -9.6635175     -10.508711     -11.095043    
     52000   1.9692899e-06 -9.0146146     -9.6903885     -10.548614     -11.143885    
     52100   1.9474833e-06 -9.0263496     -9.7170036     -10.588305     -11.192636    
     52200   1.924347e-06  -9.0376433     -9.743353      -10.627796     -11.241287    
     52300   1.8999813e-06 -9.0484729     -9.7694255     -10.66709      -11.289824    
     52400   1.8744851e-06 -9.0588141     -9.7952078     -10.706179     -11.338236    
     52500   1.8479635e-06 -9.0686439     -9.8206827     -10.745048     -11.386507    
     52600   1.8205171e-06 -9.0779418     -9.8458291     -10.783683     -11.434613    
     52700   1.7922321e-06 -9.0866887     -9.8706201     -10.822079     -11.482527    
     52800   1.7631953e-06 -9.0948636     -9.8950262     -10.860231     -11.530227    
     52900   1.733496e-06  -9.1024418     -9.9190196     -10.898127     -11.577696    
     53000   1.7032173e-06 -9.1093976     -9.9425749     -10.935749     -11.624919    
     53100   1.6724323e-06 -9.1157084     -9.9656674     -10.973073     -11.671873    
     53200   1.6412113e-06 -9.1213593     -9.9882757     -11.010076     -11.718534    
     53300   1.6096285e-06 -9.1263447     -10.010379     -11.046743     -11.76489     
     53400   1.577755e-06  -9.1306687     -10.031958     -11.083055     -11.810931    
     53500   1.5456509e-06 -9.1343427     -10.052996     -11.118995     -11.856643    
     53600   1.5133769e-06 -9.1373833     -10.07348      -11.154542     -11.902008    
     53700   1.4809897e-06 -9.1398111     -10.093394     -11.189676     -11.947009    
     53800   1.4485417e-06 -9.1416478     -10.112724     -11.224378     -11.991629    
     53900   1.4160841e-06 -9.1429143     -10.13147      -11.25863      -12.035851    
     54000   1.3836676e-06 -9.1436287     -10.149634     -11.292414     -12.07966     
     54100   1.3513417e-06 -9.1438068     -10.167225     -11.325714     -12.123039    
     54200   1.3191512e-06 -9.1434634     -10.184248     -11.358522     -12.165974    
     54300   1.287134e-06  -9.142615      -10.20071      -11.390836     -12.20845     
     54400   1.2553251e-06 -9.1412802     -10.216617     -11.422656     -12.250462    
     54500   1.2237586e-06 -9.1394789     -10.231978     -11.453977     -12.292013    
     54600   1.1924661e-06 -9.1372306     -10.246803     -11.484793     -12.333109    
     54700   1.161477e-06  -9.1345521     -10.261097     -11.515098     -12.373744    
     54800   1.1308128e-06 -9.1314562     -10.274869     -11.544888     -12.413913    
     54900   1.1004957e-06 -9.1279516     -10.288126     -11.57416      -12.453612    
     55000   1.070548e-06  -9.1240427     -10.300877     -11.602913     -12.492837    
     55100   1.0409895e-06 -9.1197308     -10.313131     -11.631152     -12.531589    
     55200   1.0118362e-06 -9.1150154     -10.324896     -11.658878     -12.569875    
     55300   9.8310721e-07 -9.1098957     -10.336177     -11.686095     -12.607698    
     55400   9.5482077e-07 -9.1043733     -10.346972     -11.712805     -12.645058    
     55500   9.2698946e-07 -9.0984527     -10.357278     -11.73901      -12.681958    
     55600   8.9962511e-07 -9.0921418     -10.367092     -11.764717     -12.718403    
     55700   8.7273839e-07 -9.0854515     -10.376408     -11.789932     -12.754398    
     55800   8.4633651e-07 -9.0783947     -10.385223     -11.814661     -12.789946    
     55900   8.2042291e-07 -9.0709863     -10.393528     -11.838911     -12.825046    
     56000   7.9499802e-07 -9.0632437     -10.401318     -11.862685     -12.859698    
     56100   7.700647e-07  -9.0551868     -10.408585     -11.885989     -12.8939      
     56200   7.4562751e-07 -9.0468393     -10.415323     -11.908828     -12.92765     
     56300   7.216871e-07  -9.0382281     -10.421526     -11.931201     -12.960944    
     56400   6.9824245e-07 -9.0293831     -10.427189     -11.953106     -12.993778    
     56500   6.7529253e-07 -9.0203363     -10.432309     -11.974538     -13.026146    
     56600   6.5283578e-07 -9.0111207     -10.436885     -11.995492     -13.058043    
     56700   6.3087153e-07 -9.0017688     -10.440916     -12.015963     -13.089463    
     56800   6.0939901e-07 -8.992311      -10.444406     -12.035948     -13.1204      
     56900   5.8841656e-07 -8.9827749     -10.447363     -12.055441     -13.150851    
     57000   5.6792292e-07 -8.9731847     -10.449797     -12.074436     -13.180816    
     57100   5.4791905e-07 -8.9635618     -10.451721     -12.092928     -13.210297    
     57200   5.2840325e-07 -8.9539255     -10.453146     -12.110915     -13.239293    
     57300   5.0937132e-07 -8.9442936     -10.454085     -12.128393     -13.267805    
     57400   4.9081938e-07 -8.9346828     -10.454551     -12.145364     -13.295833    
     57500   4.7274281e-07 -8.9251087     -10.454554     -12.161826     -13.323379    
     57600   4.5513663e-07 -8.9155849     -10.454109     -12.177776     -13.350442    
     57700   4.3799609e-07 -8.9061231     -10.45323      -12.193211     -13.377017    
     57800   4.2131707e-07 -8.8967326     -10.45193      -12.208133     -13.403099    
     57900   4.0509531e-07 -8.8874203     -10.450225     -12.222542     -13.428685    
     58000   3.8932628e-07 -8.8781912     -10.448129     -12.236442     -13.453781    
     58100   3.7400482e-07 -8.8690497     -10.445661     -12.249835     -13.478392    
     58200   3.5912553e-07 -8.8600004     -10.442836     -12.262728     -13.502524    
     58300   3.4468315e-07 -8.8510497     -10.439668     -12.275127     -13.526184    
     58400   3.3067046e-07 -8.8422064     -10.436165     -12.287038     -13.549377    
     58500   3.1707963e-07 -8.8334824     -10.43233      -12.298466     -13.572109    
     58600   3.0390441e-07 -8.8248923     -10.428161     -12.30942      -13.594385    
     58700   2.9113798e-07 -8.8164526     -10.42366      -12.319909     -13.616212    
     58800   2.7877218e-07 -8.8081814     -10.418828     -12.329941     -13.637595    
     58900   2.6679931e-07 -8.8000972     -10.413672     -12.339527     -13.658538    
     59000   2.5521242e-07 -8.7922187     -10.408197     -12.348675     -13.679047    
     59100   2.4400507e-07 -8.7845644     -10.402413     -12.357395     -13.699126    
     59200   2.3317114e-07 -8.7771525     -10.396331     -12.365695     -13.718779    
     59300   2.2270489e-07 -8.7700003     -10.389962     -12.373583     -13.738009    
     59400   2.1260017e-07 -8.7631245     -10.383321     -12.381066     -13.756819    
     59500   2.0285065e-07 -8.7565405     -10.376423     -12.388149     -13.775212    
     59600   1.9344966e-07 -8.7502622     -10.369287     -12.394838     -13.793187    
     59700   1.8439037e-07 -8.7443011     -10.36193      -12.401137     -13.810749    
     59800   1.7566622e-07 -8.7386659     -10.354377     -12.407051     -13.827902    
     59900   1.6727039e-07 -8.7333627     -10.346651     -12.412582     -13.844651    
     60000   1.5919558e-07 -8.7283943     -10.33878      -12.417733     -13.860999    
     60100   1.5143449e-07 -8.7237614     -10.330791     -12.422507     -13.876953    
     60200   1.4398016e-07 -8.7194623     -10.322711     -12.426905     -13.892515    
     60300   1.3682618e-07 -8.715494      -10.314563     -12.430929     -13.907689    
     60400   1.2996682e-07 -8.7118525     -10.306369     -12.43458      -13.922478    
     60500   1.2339665e-07 -8.7085328     -10.298148     -12.437859     -13.93688     
     60600   1.1711036e-07 -8.7055294     -10.289917     -12.440767     -13.950898    
     60700   1.1110289e-07 -8.7028366     -10.281694     -12.443306     -13.964531    
     60800   1.0536908e-07 -8.700448      -10.273492     -12.445477     -13.977854    
     60900   9.9903586e-08 -8.6983576     -10.265325     -12.447283     -13.990815    
     61000   9.4700876e-08 -8.6965595     -10.257206     -12.448727     -14.003404    
     61100   8.9755291e-08 -8.6950489     -10.249146     -12.449811     -14.01562     
     61200   8.5061062e-08 -8.693822      -10.241157     -12.450538     -14.027467    
     61300   8.0612417e-08 -8.6928771     -10.233245     -12.450915     -14.038945    
     61400   7.6403716e-08 -8.6922137     -10.225418     -12.450944     -14.050058    
     61500   7.2429214e-08 -8.6918331     -10.21768      -12.450632     -14.060807    
     61600   6.8683019e-08 -8.6917374     -10.210034     -12.449984     -14.071196    
     61700   6.5159091e-08 -8.6919289     -10.202486     -12.449009     -14.081231    
     61800   6.1851264e-08 -8.6924097     -10.195042     -12.447712     -14.090913    
     61900   5.875304e-08  -8.6931808     -10.187709     -12.446101     -14.100248    
     62000   5.5857537e-08 -8.694242      -10.180497     -12.444181     -14.109237    
     62100   5.3157564e-08 -8.6955914     -10.17342      -12.441958     -14.117885    
     62200   5.0645487e-08 -8.6972255     -10.166489     -12.439441     -14.126194    
     62300   4.8313141e-08 -8.6991396     -10.159722     -12.436638     -14.134169    
     62400   4.6151914e-08 -8.7013271     -10.153131     -12.433558     -14.141813    
     62500   4.4152907e-08 -8.7037804     -10.146733     -12.430211     -14.14913     
     62600   4.2307058e-08 -8.7064901     -10.140541     -12.426609     -14.156126    
     62700   4.060529e-08  -8.7094457     -10.134568     -12.422763     -14.162805    
     62800   3.9038621e-08 -8.712635      -10.128829     -12.418685     -14.169175    
     62900   3.7598272e-08 -8.7160445     -10.123335     -12.414388     -14.175239    
     63000   3.6275745e-08 -8.7196598     -10.118099     -12.409882     -14.181003    
     63100   3.5062867e-08 -8.7234654     -10.11313      -12.405181     -14.186471    
     63200   3.3951774e-08 -8.7274458     -10.108438     -12.400295     -14.191647    
     63300   3.2934845e-08 -8.7315853     -10.104028     -12.395237     -14.196539    
     63400   3.2004638e-08 -8.7358691     -10.099905     -12.390019     -14.20115     
     63500   3.1153841e-08 -8.7402827     -10.096071     -12.384656     -14.205485    
     63600   3.037528e-08  -8.7448132     -10.092526     -12.37916      -14.20955     
     63700   2.9661945e-08 -8.7494482     -10.089266     -12.373546     -14.213349    
     63800   2.9007043e-08 -8.7541769     -10.08629      -12.367825     -14.216887    
     63900   2.8404069e-08 -8.7589894     -10.083593     -12.36201      -14.220168    
     64000   2.7846887e-08 -8.7638771     -10.081172     -12.356112     -14.223196    
     64100   2.7329822e-08 -8.7688322     -10.07902      -12.350145     -14.225973    
     64200   2.6847717e-08 -8.773848      -10.077134     -12.344117     -14.228502    
     64300   2.6395957e-08 -8.7789187     -10.075509     -12.338042     -14.230787    
     64400   2.5970456e-08 -8.7840388     -10.074138     -12.33193      -14.232829    
     64500   2.5567621e-08 -8.7892031     -10.073016     -12.325793     -14.234632    
     64600   2.5184288e-08 -8.7944064     -10.072139     -12.319642     -14.236198    
     64700   2.4817664e-08 -8.7996426     -10.071504     -12.31349      -14.23753     
     64800   2.4465254e-08 -8.8049053     -10.071107     -12.307348     -14.238631    
     64900   2.4124827e-08 -8.8101866     -10.070948     -12.301225     -14.239503    
     65000   2.3794405e-08 -8.8154778     -10.071028     -12.295133     -14.24015     
     65100   2.3472283e-08 -8.8207691     -10.071346     -12.289081     -14.240574    
     65200   2.3157054e-08 -8.82605       -10.071904     -12.28308      -14.240778    
     65300   2.2847615e-08 -8.8313092     -10.072704     -12.277141     -14.240764    
     65400   2.2543072e-08 -8.836535      -10.073743     -12.271274     -14.240536    
     65500   2.2242634e-08 -8.8417154     -10.075022     -12.265491     -14.240097    
     65600   2.1945635e-08 -8.8468385     -10.076537     -12.259803     -14.23945     
     65700   2.1651568e-08 -8.8518922     -10.078284     -12.254218     -14.2386      
     65800   2.1360076e-08 -8.8568646     -10.080258     -12.248747     -14.237548    
     65900   2.1070912e-08 -8.8617443     -10.082453     -12.243399     -14.236298    
     66000   2.0783908e-08 -8.8665202     -10.084862     -12.238182     -14.234849    
     66100   2.0498954e-08 -8.871182      -10.087476     -12.233103     -14.233201    
     66200   2.0215941e-08 -8.8757205     -10.090288     -12.22817      -14.231358    
     66300   1.9934699e-08 -8.8801276     -10.093285     -12.223389     -14.229321    
     66400   1.9654963e-08 -8.8843964     -10.096457     -12.218768     -14.227098    
     66500   1.9376396e-08 -8.8885216     -10.099791     -12.214312     -14.224695    
     66600   1.9098623e-08 -8.8924991     -10.103273     -12.210027     -14.222121    
     66700   1.8821283e-08 -8.8963261     -10.106891     -12.205919     -14.219386    
     66800   1.8544055e-08 -8.9000006     -10.110632     -12.201991     -14.216499    
     66900   1.8266698e-08 -8.9035217     -10.114482     -12.198248     -14.213471    
     67000   1.7989088e-08 -8.9068887     -10.11843      -12.194692     -14.210312    
     67100   1.7711238e-08 -8.9101016     -10.122465     -12.191327     -14.207033    
     67200   1.7433281e-08 -8.9131601     -10.126577     -12.188154     -14.203643    
     67300   1.7155429e-08 -8.9160644     -10.130756     -12.185176     -14.200152    
     67400   1.687792e-08  -8.9188139     -10.134994     -12.182396     -14.196572    
     67500   1.6600989e-08 -8.9214082     -10.139282     -12.179815     -14.192913    
     67600   1.6324844e-08 -8.9238462     -10.143615     -12.177436     -14.189187    
     67700   1.6049648e-08 -8.9261263     -10.147985     -12.175259     -14.185403    
     67800   1.5775506e-08 -8.9282466     -10.152389     -12.173285     -14.18157     
     67900   1.5502485e-08 -8.9302046     -10.15682      -12.171515     -14.177694    
     68000   1.5230636e-08 -8.9319976     -10.161274     -12.169951     -14.173784    
     68100   1.4960043e-08 -8.9336225     -10.165747     -12.16859      -14.169844    
     68200   1.4690847e-08 -8.9350763     -10.170233     -12.167434     -14.165881    
     68300   1.4423257e-08 -8.9363564     -10.174727     -12.166483     -14.161901    
     68400   1.415756e-08  -8.9374603     -10.179221     -12.165734     -14.157908    
     68500   1.3894107e-08 -8.9383861     -10.183708     -12.165188     -14.15391     
     68600   1.3633295e-08 -8.9391325     -10.188181     -12.164843     -14.149911    
     68700   1.3375535e-08 -8.9396988     -10.19263      -12.164696     -14.145917    
     68800   1.3121214e-08 -8.9400854     -10.197047     -12.164744     -14.141935    
     68900   1.2870661e-08 -8.9402932     -10.201421     -12.164985     -14.137968    
     69000   1.2624143e-08 -8.9403241     -10.205743     -12.165413     -14.134023    
     69100   1.2381861e-08 -8.9401809     -10.210004     -12.166026     -14.130104    
     69200   1.2143966e-08 -8.9398674     -10.214194     -12.166819     -14.126218    
     69300   1.1910571e-08 -8.9393881     -10.218304     -12.167786     -14.122374    
     69400   1.1681774e-08 -8.9387485     -10.222323     -12.168924     -14.118578    
     69500   1.1457686e-08 -8.9379546     -10.226244     -12.170225     -14.114839    
     69600   1.1238445e-08 -8.9370131     -10.230058     -12.171685     -14.111167    
     69700   1.1024224e-08 -8.9359306     -10.233758     -12.173299     -14.10757     
     69800   1.0815214e-08 -8.9347142     -10.237337     -12.175059     -14.104056    
     69900   1.0611615e-08 -8.9333706     -10.24079      -12.176961     -14.100633    
     70000   1.0413607e-08 -8.9319063     -10.244112     -12.178997     -14.097307    
     70100   1.0221334e-08 -8.9303273     -10.247302     -12.181161     -14.094084    
     70200   1.0034884e-08 -8.9286393     -10.250356     -12.183448     -14.090969    
     70300   9.8542784e-09 -8.9268475     -10.253273     -12.18585      -14.087968    
     70400   9.6794695e-09 -8.9249565     -10.256052     -12.188363     -14.085084    
     70500   9.5103543e-09 -8.9229705     -10.258694     -12.19098      -14.082322    
     70600   9.3467918e-09 -8.9208936     -10.261198     -12.193695     -14.079684    
     70700   9.1886215e-09 -8.9187293     -10.263564     -12.196502     -14.077173    
     70800   9.0356808e-09 -8.9164811     -10.265794     -12.199395     -14.07479     
     70900   8.8878181e-09 -8.9141524     -10.267886     -12.202367     -14.072535    
     71000   8.7449005e-09 -8.9117466     -10.269841     -12.205413     -14.07041     
     71100   8.606813e-09  -8.9092672     -10.271659     -12.208525     -14.068413    
     71200   8.4734481e-09 -8.9067181     -10.273339     -12.211698     -14.066544    
     71300   8.3446894e-09 -8.9041034     -10.274879     -12.214924     -14.064803    
     71400   8.220397e-09  -8.9014277     -10.276279     -12.218198     -14.06319     
     71500   8.1003955e-09 -8.8986961     -10.277536     -12.221511     -14.061704    
     71600   7.9844699e-09 -8.8959141     -10.278649     -12.224858     -14.060345    
     71700   7.8723665e-09 -8.8930879     -10.279616     -12.22823      -14.059115    
     71800   7.7638012e-09 -8.8902237     -10.280435     -12.231622     -14.058012    
     71900   7.6584731e-09 -8.8873286     -10.281106     -12.235025     -14.057036    
     72000   7.5560817e-09 -8.8844098     -10.281626     -12.238433     -14.05619     
     72100   7.4563421e-09 -8.8814745     -10.281996     -12.241839     -14.055472    
     72200   7.3589953e-09 -8.8785303     -10.282215     -12.245235     -14.054885    
     72300   7.263813e-09  -8.8755848     -10.282285     -12.248616     -14.054428    
     72400   7.170596e-09  -8.8726452     -10.282206     -12.251974     -14.054103    
     72500   7.0791682e-09 -8.8697186     -10.281981     -12.255304     -14.05391     
     72600   6.9893664e-09 -8.8668119     -10.281612     -12.258599     -14.053849    
     72700   6.901029e-09  -8.8639311     -10.281102     -12.261854     -14.05392     
     72800   6.8139866e-09 -8.861082      -10.280456     -12.265063     -14.054122    
     72900   6.7280565e-09 -8.8582697     -10.279679     -12.268221     -14.054453    
     73000   6.6430448e-09 -8.8554985     -10.278775     -12.271323     -14.054909    
     73100   6.5587518e-09 -8.8527722     -10.277752     -12.274365     -14.055488    
     73200   6.4749813e-09 -8.8500943     -10.276614     -12.277343     -14.056187    
     73300   6.3915513e-09 -8.8474675     -10.275367     -12.280251     -14.057       
     73400   6.3083036e-09 -8.8448944     -10.274019     -12.283088     -14.057924    
     73500   6.2251122e-09 -8.8423773     -10.272574     -12.285848     -14.058954    
     73600   6.1418855e-09 -8.8399183     -10.271038     -12.288529     -14.060084    
     73700   6.0585649e-09 -8.8375194     -10.269415     -12.291127     -14.061311    
     73800   5.9751185e-09 -8.8351827     -10.267712     -12.293639     -14.062628    
     73900   5.8915316e-09 -8.8329103     -10.265932     -12.296063     -14.064031    
     74000   5.8077983e-09 -8.8307043     -10.264078     -12.298394     -14.065513    
     74100   5.7239126e-09 -8.8285672     -10.262156     -12.300631     -14.067069    
     74200   5.6398639e-09 -8.8265015     -10.260168     -12.302771     -14.068696    
     74300   5.5556356e-09 -8.8245099     -10.258117     -12.30481      -14.070387    
     74400   5.4712089e-09 -8.8225954     -10.256007     -12.306746     -14.07214     
     74500   5.3865682e-09 -8.8207609     -10.253841     -12.308578     -14.073949    
     74600   5.3017096e-09 -8.8190095     -10.251622     -12.310302     -14.075812    
     74700   5.2166465e-09 -8.8173445     -10.249353     -12.311916     -14.077725    
     74800   5.1314146e-09 -8.8157688     -10.247038     -12.31342      -14.079685    
     74900   5.0460725e-09 -8.8142854     -10.244682     -12.314812     -14.081688    
     75000   4.9607e-09    -8.812897      -10.242288     -12.316089     -14.083732    
     75100   4.8753927e-09 -8.8116059     -10.239861     -12.317253     -14.085813    
     75200   4.7902551e-09 -8.810414      -10.237406     -12.318301     -14.087929    
     75300   4.7053923e-09 -8.8093228     -10.234928     -12.319233     -14.090075    
     75400   4.6209042e-09 -8.8083333     -10.232433     -12.320051     -14.092249    
     75500   4.536881e-09  -8.8074459     -10.229927     -12.320753     -14.094446    
     75600   4.4534024e-09 -8.8066606     -10.227416     -12.321342     -14.096663    
     75700   4.370539e-09  -8.8059767     -10.224906     -12.321817     -14.098894    
     75800   4.2883569e-09 -8.8053933     -10.222403     -12.322181     -14.101135    
     75900   4.2069225e-09 -8.8049087     -10.219913     -12.322435     -14.103381    
     76000   4.1263078e-09 -8.8045212     -10.217442     -12.32258      -14.105626    
     76100   4.0465931e-09 -8.8042287     -10.214996     -12.322618     -14.107865    
     76200   3.9678686e-09 -8.8040291     -10.21258      -12.322552     -14.110094    
     76300   3.8902322e-09 -8.8039198     -10.210198     -12.322384     -14.112306    
     76400   3.8137861e-09 -8.8038987     -10.207854     -12.322115     -14.114497    
     76500   3.738631e-09  -8.8039634     -10.205553     -12.32175      -14.116661    
     76600   3.6648613e-09 -8.8041117     -10.203297     -12.321289     -14.118795    
     76700   3.5925593e-09 -8.8043416     -10.20109      -12.320735     -14.120895    
     76800   3.521793e-09  -8.8046512     -10.198933     -12.320091     -14.122955    
     76900   3.4526149e-09 -8.8050386     -10.196829     -12.319359     -14.124973    
     77000   3.385064e-09  -8.8055022     -10.19478      -12.318541     -14.126946    
     77100   3.3191689e-09 -8.8060406     -10.192787     -12.317641     -14.128871    
     77200   3.2549525e-09 -8.8066522     -10.190851     -12.316661     -14.130744    
     77300   3.1924351e-09 -8.8073357     -10.188975     -12.315602     -14.132565    
     77400   3.131638e-09  -8.8080897     -10.187159     -12.31447      -14.134332    
     77500   3.0725843e-09 -8.8089127     -10.185406     -12.313265     -14.136043    
     77600   3.0152975e-09 -8.8098032     -10.183717     -12.311991     -14.137697    
     77700   2.9597997e-09 -8.8107594     -10.182094     -12.310652     -14.139293    
     77800   2.9061075e-09 -8.8117794     -10.180538     -12.309251     -14.14083     
     77900   2.8542284e-09 -8.8128608     -10.179051     -12.307791     -14.142308    
     78000   2.804158e-09  -8.8140012     -10.177637     -12.306275     -14.143724    
     78100   2.7558778e-09 -8.8151978     -10.176296     -12.304708     -14.145078    
     78200   2.7093555e-09 -8.8164472     -10.175032     -12.303094     -14.146368    
     78300   2.6645464e-09 -8.8177462     -10.173846     -12.301435     -14.147593    
     78400   2.6213965e-09 -8.8190909     -10.17274      -12.299738     -14.148752    
     78500   2.5798459e-09 -8.8204774     -10.171716     -12.298005     -14.149843    
     78600   2.5398327e-09 -8.8219018     -10.170776     -12.296241     -14.150864    
     78700   2.5012953e-09 -8.8233599     -10.169921     -12.29445      -14.151814    
     78800   2.4641739e-09 -8.8248474     -10.169153     -12.292636     -14.152691    
     78900   2.4284105e-09 -8.8263603     -10.168471     -12.290804     -14.153494    
     79000   2.3939473e-09 -8.8278946     -10.167876     -12.288957     -14.154221    
     79100   2.3607247e-09 -8.8294463     -10.167367     -12.287099     -14.154871    
     79200   2.3286791e-09 -8.8310118     -10.166945     -12.285235     -14.155444    
     79300   2.2977404e-09 -8.8325877     -10.166607     -12.283367     -14.15594     
     79400   2.2678316e-09 -8.8341707     -10.166353     -12.281499     -14.156358    
     79500   2.2388691e-09 -8.8357579     -10.166181     -12.279634     -14.156698    
     79600   2.2107641e-09 -8.8373466     -10.166088     -12.277777     -14.156961    
     79700   2.1834253e-09 -8.8389341     -10.166074     -12.275929     -14.157148    
     79800   2.1567617e-09 -8.8405183     -10.166135     -12.274095     -14.157261    
     79900   2.1306861e-09 -8.8420969     -10.16627      -12.272276     -14.1573      
     80000   2.1051165e-09 -8.8436679     -10.166475     -12.270475     -14.157268    
     80100   2.0799782e-09 -8.8452293     -10.166751     -12.268696     -14.157166    
     80200   2.0552032e-09 -8.8467792     -10.167093     -12.26694      -14.156997    
     80300   2.0307296e-09 -8.8483155     -10.1675       -12.265211     -14.156762    
     80400   2.0064997e-09 -8.8498364     -10.167971     -12.263511     -14.156464    
     80500   1.9824587e-09 -8.8513397     -10.168503     -12.261842     -14.156106    
     80600   1.9585529e-09 -8.8528233     -10.169095     -12.260208     -14.15569     
     80700   1.9347289e-09 -8.8542849     -10.169746     -12.25861      -14.155217    
     80800   1.9109339e-09 -8.8557222     -10.170453     -12.257052     -14.154691    
     80900   1.8871166e-09 -8.8571327     -10.171216     -12.255535     -14.154112    
     81000   1.8632288e-09 -8.8585139     -10.172033     -12.254062     -14.153482    
     81100   1.8392275e-09 -8.859863      -10.172902     -12.252635     -14.152804    
     81200   1.8150766e-09 -8.8611777     -10.173822     -12.251257     -14.152078    
     81300   1.7907487e-09 -8.8624552     -10.174791     -12.24993      -14.151307    
     81400   1.7662253e-09 -8.8636932     -10.175807     -12.248656     -14.150491    
     81500   1.7414965e-09 -8.8648892     -10.176867     -12.247436     -14.149632    
     81600   1.7165603e-09 -8.8660412     -10.17797      -12.246272     -14.148731    
     81700   1.6914205e-09 -8.8671472     -10.179112     -12.245166     -14.147791    
     81800   1.6660851e-09 -8.8682055     -10.180291     -12.244119     -14.146814    
     81900   1.6405648e-09 -8.8692146     -10.181503     -12.243132     -14.1458      
     82000   1.6148716e-09 -8.8701734     -10.182746     -12.242206     -14.144752    
     82100   1.5890187e-09 -8.871081      -10.184016     -12.241342     -14.143673    
     82200   1.5630206e-09 -8.8719366     -10.18531      -12.240539     -14.142565    
     82300   1.5368939e-09 -8.87274       -10.186623     -12.2398       -14.141431    
     82400   1.5106587e-09 -8.8734909     -10.187954     -12.239122     -14.140273    
     82500   1.4843389e-09 -8.8741892     -10.189297     -12.238508     -14.139094    
     82600   1.4579638e-09 -8.8748352     -10.190651     -12.237956     -14.137898    
     82700   1.4315672e-09 -8.875429      -10.192011     -12.237465     -14.136688    
     82800   1.4051876e-09 -8.875971      -10.193376     -12.237037     -14.135466    
     82900   1.3788668e-09 -8.8764616     -10.194741     -12.23667      -14.134236    
     83000   1.3526482e-09 -8.8769012     -10.196105     -12.236364     -14.133001    
     83100   1.3265754e-09 -8.8772901     -10.197465     -12.236118     -14.131764    
     83200   1.3006907e-09 -8.8776287     -10.19882      -12.235931     -14.130528    
     83300   1.275034e-09  -8.8779172     -10.200166     -12.235804     -14.129295    
     83400   1.2496425e-09 -8.878156      -10.201502     -12.235735     -14.128068    
     83500   1.2245506e-09 -8.8783452     -10.202826     -12.235724     -14.126849    
     83600   1.1997906e-09 -8.8784849     -10.204137     -12.23577      -14.12564     
     83700   1.1753931e-09 -8.8785754     -10.205433     -12.235872     -14.124444    
     83800   1.1513881e-09 -8.8786168     -10.206712     -12.23603      -14.123261    
     83900   1.1278055e-09 -8.8786093     -10.207973     -12.236241     -14.122093    
     84000   1.1046753e-09 -8.8785532     -10.209214     -12.236507     -14.120942    
     84100   1.0820268e-09 -8.8784487     -10.210434     -12.236824     -14.119809    
     84200   1.0598888e-09 -8.8782965     -10.211631     -12.237193     -14.118696    
     84300   1.0382875e-09 -8.8780971     -10.212802     -12.237612     -14.117602    
     84400   1.0172466e-09 -8.8778513     -10.213947     -12.238079     -14.116531    
     84500   9.967853e-10  -8.8775602     -10.215063     -12.238592     -14.115482    
     84600   9.7691852e-10 -8.8772249     -10.216148     -12.239152     -14.114457    
     84700   9.576563e-10  -8.8768468     -10.2172       -12.239754     -14.113459    
     84800   9.3900428e-10 -8.8764274     -10.218218     -12.240398     -14.112487    
     84900   9.2096424e-10 -8.8759684     -10.2192       -12.241081     -14.111544    
     85000   9.0353502e-10 -8.8754716     -10.220144     -12.241802     -14.110631    
     85100   8.8671328e-10 -8.874939      -10.221047     -12.242557     -14.109749    
     85200   8.7049426e-10 -8.8743725     -10.22191      -12.243346     -14.108901    
     85300   8.5487213e-10 -8.8737741     -10.22273      -12.244165     -14.108087    
     85400   8.3984001e-10 -8.8731461     -10.223506     -12.245013     -14.107309    
     85500   8.2538978e-10 -8.8724902     -10.224238     -12.245887     -14.106569    
     85600   8.1151146e-10 -8.8718087     -10.224924     -12.246785     -14.105868    
     85700   7.9819277e-10 -8.8711034     -10.225565     -12.247705     -14.105206    
     85800   7.8541856e-10 -8.8703762     -10.22616      -12.248644     -14.104586    
     85900   7.7317066e-10 -8.8696288     -10.226709     -12.249601     -14.104007    
     86000   7.6142786e-10 -8.868863      -10.227212     -12.250573     -14.10347     
     86100   7.5016637e-10 -8.8680803     -10.227669     -12.251559     -14.102977    
     86200   7.393604e-10  -8.8672822     -10.228081     -12.252556     -14.102526    
     86300   7.2898299e-10 -8.8664702     -10.228448     -12.253563     -14.102118    
     86400   7.1900677e-10 -8.8656456     -10.22877      -12.254578     -14.101752    
     86500   7.0940459e-10 -8.8648098     -10.229048     -12.255598     -14.10143     
     86600   7.0015003e-10 -8.863964      -10.229282     -12.256623     -14.101149    
     86700   6.9121743e-10 -8.8631096     -10.229473     -12.25765      -14.100909    
     86800   6.8258186e-10 -8.862248      -10.229622     -12.258678     -14.10071     
     86900   6.7421878e-10 -8.8613804     -10.229728     -12.259704     -14.100551    
     87000   6.6610368e-10 -8.8605085     -10.229793     -12.260728     -14.100431    
     87100   6.5821171e-10 -8.8596337     -10.229816     -12.261747     -14.10035     
     87200   6.5051755e-10 -8.8587575     -10.229798     -12.26276      -14.100307    
     87300   6.4299542e-10 -8.8578817     -10.22974      -12.263765     -14.1003      
     87400   6.356194e-10  -8.8570079     -10.229641     -12.264759     -14.10033     
     87500   6.2836385e-10 -8.856138      -10.229503     -12.265742     -14.100396    
     87600   6.21204e-10   -8.8552737     -10.229325     -12.266711     -14.100497    
     87700   6.1411652e-10 -8.8544168     -10.229109     -12.267664     -14.100633    
     87800   6.0707998e-10 -8.8535691     -10.228855     -12.268601     -14.100803    
     87900   6.0007508e-10 -8.8527325     -10.228563     -12.269519     -14.101007    
     88000   5.9308479e-10 -8.8519085     -10.228236     -12.270417     -14.101244    
     88100   5.8609412e-10 -8.8510988     -10.227873     -12.271292     -14.101513    
     88200   5.7908991e-10 -8.850305      -10.227476     -12.272145     -14.101815    
     88300   5.7206039e-10 -8.8495285     -10.227047     -12.272972     -14.102148    
     88400   5.6499489e-10 -8.8487705     -10.226586     -12.273774     -14.102511    
     88500   5.5788359e-10 -8.8480322     -10.226096     -12.274549     -14.102903    
     88600   5.5071747e-10 -8.8473147     -10.225578     -12.275295     -14.103324    
     88700   5.4348838e-10 -8.8466188     -10.225034     -12.276013     -14.103772    
     88800   5.3618932e-10 -8.8459454     -10.224465     -12.276701     -14.104246    
     88900   5.2881471e-10 -8.845295      -10.223874     -12.277359     -14.104745    
     89000   5.2136075e-10 -8.8446683     -10.223261     -12.277985     -14.105267    
     89100   5.1382567e-10 -8.8440657     -10.222629     -12.27858      -14.10581     
     89200   5.0620982e-10 -8.8434877     -10.22198      -12.279143     -14.106372    
     89300   4.9851564e-10 -8.8429345     -10.221315     -12.279673     -14.106953    
     89400   4.9074742e-10 -8.8424066     -10.220635     -12.280171     -14.10755     
     89500   4.8291102e-10 -8.8419043     -10.219943     -12.280636     -14.108162    
     89600   4.7501347e-10 -8.8414279     -10.219239     -12.281067     -14.108786    
     89700   4.6706257e-10 -8.8409778     -10.218526     -12.281466     -14.109422    
     89800   4.590667e-10  -8.8405542     -10.217804     -12.281831     -14.110067    
     89900   4.5103453e-10 -8.8401576     -10.217074     -12.282162     -14.11072     
     90000   4.4297511e-10 -8.8397884     -10.216339     -12.282459     -14.11138     
     90100   4.3489787e-10 -8.8394469     -10.215598     -12.282723     -14.112046    
     90200   4.268128e-10  -8.8391335     -10.214854     -12.282953     -14.112715    
     90300   4.187306e-10  -8.8388486     -10.214107     -12.283149     -14.113388    
     90400   4.1066282e-10 -8.8385924     -10.213359     -12.283311     -14.114062    
     90500   4.0262182e-10 -8.8383654     -10.21261      -12.28344      -14.114737    
     90600   3.946207e-10  -8.8381676     -10.211862     -12.283534     -14.115412    
     90700   3.8667307e-10 -8.8379992     -10.211117     -12.283596     -14.116085    
     90800   3.7879279e-10 -8.8378603     -10.210376     -12.283624     -14.116757    
     90900   3.7099358e-10 -8.8377508     -10.209639     -12.28362      -14.117425    
     91000   3.6328874e-10 -8.8376705     -10.208909     -12.283584     -14.11809     
     91100   3.556909e-10  -8.8376192     -10.208186     -12.283516     -14.118749    
     91200   3.4821181e-10 -8.8375965     -10.207473     -12.283416     -14.119402    
     91300   3.4086237e-10 -8.8376019     -10.20677      -12.283286     -14.120049    
     91400   3.3365261e-10 -8.8376348     -10.206079     -12.283127     -14.120687    
     91500   3.265918e-10  -8.8376946     -10.205402     -12.282939     -14.121315    
     91600   3.1968863e-10 -8.8377805     -10.204739     -12.282723     -14.121933    
     91700   3.1295123e-10 -8.8378917     -10.204092     -12.28248      -14.122539    
     91800   3.063873e-10  -8.8380273     -10.203462     -12.282211     -14.123133    
     91900   3.0000399e-10 -8.8381866     -10.202849     -12.281917     -14.123712    
     92000   2.9380784e-10 -8.8383685     -10.202256     -12.2816       -14.124276    
     92100   2.8780458e-10 -8.8385723     -10.201682     -12.28126      -14.124824    
     92200   2.8199896e-10 -8.8387971     -10.201128     -12.280898     -14.125355    
     92300   2.7639454e-10 -8.8390419     -10.200596     -12.280516     -14.125867    
     92400   2.7099357e-10 -8.8393061     -10.200085     -12.280115     -14.126361    
     92500   2.6579696e-10 -8.8395887     -10.199596     -12.279695     -14.126834    
     92600   2.6080429e-10 -8.8398891     -10.199129     -12.279258     -14.127287    
     92700   2.5601393e-10 -8.8402065     -10.198685     -12.278805     -14.12772     
     92800   2.5142318e-10 -8.8405403     -10.198263     -12.278337     -14.12813     
     92900   2.4702849e-10 -8.8408896     -10.197865     -12.277854     -14.128519    
     93000   2.428256e-10  -8.8412538     -10.19749      -12.277359     -14.128886    
     93100   2.3880965e-10 -8.8416322     -10.197139     -12.276852     -14.129231    
     93200   2.3497528e-10 -8.8420241     -10.196811     -12.276333     -14.129554    
     93300   2.3131659e-10 -8.8424287     -10.196507     -12.275805     -14.129855    
     93400   2.2782716e-10 -8.8428453     -10.196227     -12.275268     -14.130133    
     93500   2.2449993e-10 -8.8432729     -10.195971     -12.274723     -14.13039     
     93600   2.2132719e-10 -8.8437108     -10.195739     -12.274171     -14.130624    
     93700   2.1830054e-10 -8.8441579     -10.195531     -12.273613     -14.130836    
     93800   2.1541092e-10 -8.8446133     -10.195349     -12.273051     -14.131027    
     93900   2.1264872e-10 -8.8450761     -10.19519      -12.272485     -14.131195    
     94000   2.1000388e-10 -8.845545      -10.195057     -12.271917     -14.131342    
     94100   2.0746612e-10 -8.8460191     -10.194948     -12.271348     -14.131467    
     94200   2.0502508e-10 -8.8464972     -10.194864     -12.270779     -14.13157     
     94300   2.0267052e-10 -8.8469782     -10.194805     -12.270211     -14.131651    
     94400   2.0039244e-10 -8.847461      -10.19477      -12.269645     -14.131711    
     94500   1.9818117e-10 -8.8479445     -10.19476      -12.269082     -14.131749    
     94600   1.9602739e-10 -8.8484277     -10.194773     -12.268524     -14.131765    
     94700   1.9392216e-10 -8.8489095     -10.19481      -12.267971     -14.13176     
     94800   1.9185683e-10 -8.8493889     -10.19487      -12.267425     -14.131734    
     94900   1.8982303e-10 -8.8498651     -10.194952     -12.266887     -14.131687    
     95000   1.8781269e-10 -8.8503371     -10.195056     -12.266356     -14.131618    
     95100   1.8581795e-10 -8.8508042     -10.195182     -12.265836     -14.13153     
     95200   1.8383133e-10 -8.8512656     -10.195328     -12.265325     -14.131421    
     95300   1.8184572e-10 -8.8517206     -10.195494     -12.264826     -14.131293    
     95400   1.798545e-10  -8.8521687     -10.195679     -12.264338     -14.131146    
     95500   1.7785169e-10 -8.8526092     -10.195882     -12.263862     -14.130981    
     95600   1.7583198e-10 -8.8530416     -10.196102     -12.263399     -14.130799    
     95700   1.7379085e-10 -8.8534654     -10.196339     -12.26295      -14.130599    
     95800   1.7172453e-10 -8.8538801     -10.196592     -12.262515     -14.130384    
     95900   1.6963005e-10 -8.8542852     -10.19686      -12.262095     -14.130153    
     96000   1.6750512e-10 -8.8546802     -10.197142     -12.26169      -14.129909    
     96100   1.6534808e-10 -8.8550648     -10.197437     -12.2613       -14.12965     
     96200   1.6315785e-10 -8.8554384     -10.197746     -12.260926     -14.12938     
     96300   1.6093381e-10 -8.8558005     -10.198066     -12.260568     -14.129097    
     96400   1.586758e-10  -8.8561506     -10.198398     -12.260228     -14.128804    
     96500   1.5638404e-10 -8.8564883     -10.198741     -12.259904     -14.1285      
     96600   1.5405921e-10 -8.8568131     -10.199094     -12.259597     -14.128187    
     96700   1.5170242e-10 -8.8571244     -10.199456     -12.259308     -14.127866    
     96800   1.4931525e-10 -8.8574219     -10.199827     -12.259037     -14.127536    
     96900   1.4689978e-10 -8.857705      -10.200206     -12.258785     -14.127199    
     97000   1.4445859e-10 -8.8579734     -10.200592     -12.258551     -14.126856    
     97100   1.4199473e-10 -8.8582266     -10.200985     -12.258335     -14.126507    
     97200   1.3951165e-10 -8.8584643     -10.201383     -12.258139     -14.126152    
     97300   1.3701316e-10 -8.8586862     -10.201786     -12.257961     -14.125792    
     97400   1.345033e-10  -8.858892      -10.202194     -12.257803     -14.125428    
     97500   1.3198631e-10 -8.8590816     -10.202604     -12.257664     -14.12506     
     97600   1.2946646e-10 -8.8592549     -10.203017     -12.257544     -14.124689    
     97700   1.2694807e-10 -8.8594118     -10.203431     -12.257443     -14.124316    
     97800   1.2443543e-10 -8.8595522     -10.203846     -12.257361     -14.123942    
     97900   1.219328e-10  -8.8596764     -10.204261     -12.257298     -14.123566    
     98000   1.194444e-10  -8.8597843     -10.204674     -12.257254     -14.123191    
     98100   1.1697443e-10 -8.8598762     -10.205085     -12.257228     -14.122815    
     98200   1.1452708e-10 -8.8599522     -10.205493     -12.25722      -14.122442    
     98300   1.1210653e-10 -8.8600126     -10.205897     -12.25723      -14.12207     
     98400   1.0971689e-10 -8.8600576     -10.206297     -12.257257     -14.121701    
     98500   1.0736222e-10 -8.8600875     -10.206691     -12.257302     -14.121336    
     98600   1.0504645e-10 -8.8601026     -10.20708      -12.257363     -14.120975    
     98700   1.0277331e-10 -8.8601032     -10.207462     -12.25744      -14.12062     
     98800   1.0054631e-10 -8.8600896     -10.207838     -12.257533     -14.12027     
     98900   9.8368633e-11 -8.860062      -10.208205     -12.257641     -14.119927    
     99000   9.6243152e-11 -8.8600207     -10.208565     -12.257764     -14.119591    
     99100   9.417239e-11  -8.859966      -10.208917     -12.257901     -14.119263    
     99200   9.215853e-11  -8.8598982     -10.209259     -12.258052     -14.118943    
     99300   9.0203432e-11 -8.8598174     -10.209592     -12.258216     -14.118631    
     99400   8.8308656e-11 -8.8597241     -10.209916     -12.258393     -14.118329    
     99500   8.647549e-11  -8.8596184     -10.210229     -12.258582     -14.118036    
     99600   8.4704969e-11 -8.8595007     -10.210533     -12.258783     -14.117753    
     99700   8.2997875e-11 -8.8593712     -10.210825     -12.258996     -14.11748     
     99800   8.1354743e-11 -8.8592304     -10.211107     -12.259219     -14.117217    
     99900   7.9775835e-11 -8.8590784     -10.211377     -12.259452     -14.116965    
    100000   7.8261125e-11 -8.8589159     -10.211635     -12.259695     -14.116724    
Loop time of 8.18566 on 4 procs for 50000 steps with 9576 atoms

Performance: 52775212.141 tau/day, 6108.242 timesteps/s, 58.493 Matom-step/s
99.3% CPU use with 4 MPI tasks x 1 OpenMP threads

MPI task timing breakdown:
Section |  min time  |  avg time  |  max time  |%varavg| %total
---------------------------------------------------------------
Pair    | 0.40037    | 0.4047     | 0.40957    |   0.6 |  4.94
Bond    | 6.3124     | 6.3403     | 6.3704     |   1.0 | 77.46
Neigh   | 0.037178   | 0.03729    | 0.037356   |   0.0 |  0.46
Comm    | 0.30392    | 0.35161    | 0.39655    |   7.5 |  4.30
Output  | 0.015318   | 0.016424   | 0.018809   |   1.1 |  0.20
Modify  | 0.79081    | 0.81538    | 0.83683    |   2.3 |  9.96
Other   |            | 0.2199     |            |       |  2.69

Nlocal:           2394 ave        2413 max        2375 min
Histogram: 1 1 0 0 0 0 0 0 1 1
Nghost:          317.5 ave         327 max         311 min
Histogram: 1 0 1 1 0 0 0 0 0 1
Neighs:        11238.2 ave       11405 max       11079 min
Histogram: 1 0 0 0 1 1 0 0 0 1

Total # of neighbors = 44953
Ave neighs/atom = 4.69434
Ave special neighs/atom = 11.515455
Neighbor list builds = 32
Dangerous builds = 0

# remove load

unfix           3
run             60000
Generated 0 of 6 mixed pair_coeff terms from geometric mixing rule
Per MPI rank memory allocation (min/avg/max) = 18.74 | 18.74 | 18.74 Mbytes
   Step         KinEng        c_zmin1        c_zmin2        c_zmin3        c_zmin4    
    100000   7.8261125e-11 -8.8589159     -10.211635     -12.259695     -14.116724    
    100100   3.6724789e-07 -8.8425465     -10.196127     -12.244898     -14.102021    
    100200   1.1701435e-06 -8.804791      -10.159896     -12.210527     -14.068796    
    100300   2.2475797e-06 -8.7523106     -10.10924      -12.162305     -14.022311    
    100400   3.5163279e-06 -8.688135      -10.047143     -12.103132     -13.9654      
    100500   4.9252283e-06 -8.6138291     -9.9751195     -12.034434     -13.899304    
    100600   6.4792113e-06 -8.5306557     -9.8944193     -11.957428     -13.825297    
    100700   8.1566182e-06 -8.4398044     -9.8062836     -11.873399     -13.744695    
    100800   9.8250721e-06 -8.3421201     -9.7115628     -11.783163     -13.658405    
    100900   1.1476809e-05 -8.2383201     -9.6109086     -11.687281     -13.567147    
    101000   1.3184339e-05 -8.128927      -9.5047431     -11.586228     -13.47144     
    101100   1.4997002e-05 -8.0132575     -9.3924285     -11.479514     -13.370745    
    101200   1.6952961e-05 -7.8902617     -9.2731032     -11.366344     -13.264073    
    101300   1.906197e-05  -7.7618369     -9.1479774     -11.247293     -13.151585    
    101400   2.1308446e-05 -7.6325935     -9.0203808     -11.124641     -13.034914    
    101500   2.3704676e-05 -7.5058235     -8.8932767     -11.000994     -12.91621     
    101600   2.6222173e-05 -7.3814217     -8.7676275     -10.877858     -12.796783    
    101700   2.8762433e-05 -7.2570525     -8.6425112     -10.75512      -12.676893    
    101800   3.1208954e-05 -7.1299553     -8.516037      -10.631455     -12.55595     
    101900   3.3480895e-05 -6.9979064     -8.3862218     -10.505181     -12.432811    
    102000   3.5560481e-05 -6.859471      -8.2515305     -10.374922     -12.306288    
    102100   3.746808e-05  -6.713807      -8.1109047     -10.239751     -12.175514    
    102200   3.9204886e-05 -6.5602169     -7.9634609     -10.098879     -12.03979     
    102300   4.075432e-05  -6.3980242     -7.8083881     -9.9514953     -11.898389    
    102400   4.2127555e-05 -6.2271565     -7.6453939     -9.7971388     -11.750781    
    102500   4.3371976e-05 -6.0485462     -7.4750332     -9.6360439     -11.597681    
    102600   4.454565e-05  -5.8633335     -7.2981562     -9.4687915     -11.439134    
    102700   4.5676664e-05 -5.671645      -7.1150008     -9.2955721     -11.275       
    102800   4.6744751e-05 -5.4724755     -6.924984      -9.1159086     -11.104856    
    102900   4.7706362e-05 -5.2647681     -6.7273399     -8.9291005     -10.928042    
    103000   4.8518373e-05 -5.0485628     -6.5219437     -8.7349318     -10.744269    
    103100   4.9138089e-05 -4.8253844     -6.3097513     -8.5341266     -10.554068    
    103200   4.9523312e-05 -4.5978619     -6.0927148     -8.3283543     -10.358866    
    103300   4.9643513e-05 -4.36899       -5.8733366     -8.1198795     -10.16072     
    103400   4.9495327e-05 -4.1414945     -5.6541568     -7.9110949     -9.9618868    
    103500   4.9107696e-05 -3.9175896     -5.4374404     -7.7041846     -9.7644687    
    103600   4.8523748e-05 -3.6990302     -5.2250806     -7.500975      -9.5702487    
    103700   4.7780302e-05 -3.4870626     -5.0184823     -7.3028179     -9.3805759    
    103800   4.6907798e-05 -3.2821527     -4.8183398     -7.1104228     -9.1962155    
    103900   4.5939168e-05 -3.0838943     -4.6245636     -6.9238043     -9.0172802    
    104000   4.4908202e-05 -2.8914417     -4.4365866     -6.7425309     -8.8434169    
    104100   4.3833482e-05 -2.704217      -4.2538997     -6.5661787     -8.6742032    
    104200   4.2703625e-05 -2.5856072     -4.0764348     -6.3946907     -8.509511     
    104300   4.148503e-05  -2.5158787     -3.9045598     -6.2284199     -8.3496173    
    104400   4.0145635e-05 -2.500138      -3.7387459     -6.06787       -8.1950124    
    104500   3.8672578e-05 -2.500138      -3.5791505     -5.9133217     -8.0460617    
    104600   3.7071621e-05 -2.500138      -3.4253679     -5.764561      -7.9027685    
    104700   3.5356842e-05 -2.500138      -3.2764475     -5.6208844     -7.7646962    
    104800   3.3548956e-05 -2.500138      -3.1310938     -5.4812959     -7.6310562    
    104900   3.1676227e-05 -2.500138      -2.9878972     -5.344715      -7.500781     
    105000   2.9775443e-05 -2.500138      -2.8455995     -5.2100063     -7.3726681    
    105100   2.7884718e-05 -2.500138      -2.7034588     -5.0761005     -7.2456574    
    105200   2.6033186e-05 -2.500138      -2.5958479     -4.9423576     -7.1190497    
    105300   2.4237127e-05 -2.500138      -2.5616781     -4.8087216     -6.9926923    
    105400   2.2502711e-05 -2.500138      -2.5366372     -4.6757131     -6.8669781    
    105500   2.0829504e-05 -2.500138      -2.5266462     -4.544272      -6.7426387    
    105600   1.9210546e-05 -2.500138      -2.5202644     -4.4154471     -6.6204547    
    105700   1.7632285e-05 -2.500138      -2.5162554     -4.2901125     -6.5010996    
    105800   1.6079757e-05 -2.500138      -2.5140143     -4.1688041     -6.385077     
    105900   1.4545524e-05 -2.500138      -2.512669      -4.0518666     -6.272692     
    106000   1.3035146e-05 -2.500138      -2.511268      -3.9395945     -6.1641979    
    106100   1.1564721e-05 -2.500138      -2.5090908     -3.8323336     -6.0599627    
    106200   1.0153726e-05 -2.500138      -2.5057928     -3.7306112     -5.9605556    
    106300   8.8199757e-06 -2.500138      -2.5013801     -3.6351067     -5.8666902    
    106400   7.5791391e-06 -2.500138      -2.5002677     -3.5465933     -5.7791278    
    106500   6.4452766e-06 -2.500138      -2.500138      -3.4658908     -5.6986223    
    106600   5.4289021e-06 -2.500138      -2.500138      -3.393736      -5.6258354    
    106700   4.5331674e-06 -2.500138      -2.500138      -3.3306126     -5.5611728    
    106800   3.7520684e-06 -2.500138      -2.500138      -3.2765799     -5.5047168    
    106900   3.0729643e-06 -2.500138      -2.500138      -3.2312035     -5.4562376    
    107000   2.4812843e-06 -2.500138      -2.500138      -3.1954337     -5.4152168    
    107100   1.9641523e-06 -2.500138      -2.500138      -3.1650964     -5.3809409    
    107200   1.5119748e-06 -2.500138      -2.500138      -3.1395497     -5.352672     
    107300   1.1192291e-06 -2.500138      -2.500138      -3.1197854     -5.3297697    
    107400   7.8530026e-07 -2.500138      -2.500138      -3.1057089     -5.3117365    
    107500   5.1448396e-07 -2.500138      -2.500138      -3.0960796     -5.2981809    
    107600   3.1442633e-07 -2.500138      -2.500138      -3.0904953     -5.2887533    
    107700   1.9314657e-07 -2.500138      -2.500138      -3.0885903     -5.2830899    
    107800   1.5614409e-07 -2.500138      -2.500138      -3.0900181     -5.2808007    
    107900   2.0512118e-07 -2.500138      -2.500138      -3.0944213     -5.2814666    
    108000   3.3783034e-07 -2.500138      -2.500138      -3.1014063     -5.2846335    
    108100   5.481321e-07  -2.500138      -2.500138      -3.110536      -5.2898476    
    108200   8.260363e-07  -2.500138      -2.500138      -3.1214309     -5.296733     
    108300   1.1583913e-06 -2.500138      -2.500138      -3.1339405     -5.3050639    
    108400   1.5307698e-06 -2.500138      -2.500138      -3.1482216     -5.3148342    
    108500   1.9300204e-06 -2.500138      -2.500138      -3.1646802     -5.3262808    
    108600   2.3464351e-06 -2.500138      -2.500138      -3.1838794     -5.3398385    
    108700   2.7747299e-06 -2.500138      -2.500138      -3.2064839     -5.3560643    
    108800   3.2137228e-06 -2.500138      -2.500138      -3.2331653     -5.3755749    
    108900   3.6651678e-06 -2.500138      -2.500138      -3.2644831     -5.3989518    
    109000   4.1321905e-06 -2.500138      -2.500138      -3.3008101     -5.4266489    
    109100   4.6175573e-06 -2.500138      -2.500138      -3.3423257     -5.4589497    
    109200   5.122012e-06  -2.500138      -2.500138      -3.3890442     -5.495985     
    109300   5.6430878e-06 -2.500138      -2.500138      -3.4408695     -5.5377812    
    109400   6.1747752e-06 -2.500138      -2.5004218     -3.4976614     -5.5843043    
    109500   6.708112e-06  -2.500138      -2.5006818     -3.5592733     -5.6354825    
    109600   7.2324062e-06 -2.500138      -2.5008586     -3.62553       -5.6912011    
    109700   7.7367193e-06 -2.500138      -2.5012702     -3.6961702     -5.7512716    
    109800   8.2113769e-06 -2.500138      -2.5036961     -3.7708035     -5.8153935    
    109900   8.6493244e-06 -2.500138      -2.5064185     -3.8488977     -5.8831355    
    110000   9.0470253e-06 -2.500138      -2.5095327     -3.929786      -5.9539397    
    110100   9.4045586e-06 -2.500138      -2.5130976     -4.0126995     -6.0271453    
    110200   9.7247966e-06 -2.500138      -2.5171793     -4.0968321     -6.1020327    
    110300   1.001195e-05  -2.500138      -2.5219222     -4.1814242     -6.1778895    
    110400   1.0270004e-05 -2.500138      -2.5318917     -4.2658412     -6.2540806    
    110500   1.0501481e-05 -2.500138      -2.5480841     -4.349623      -6.3301003    
    110600   1.0706699e-05 -2.500138      -2.5722688     -4.4324944     -6.40559      
    110700   1.0883558e-05 -2.500138      -2.6101965     -4.5143374     -6.4803233    
    110800   1.1027867e-05 -2.500138      -2.6803421     -4.5951387     -6.5541743    
    110900   1.1134206e-05 -2.500138      -2.7716009     -4.6749414     -6.6270846    
    111000   1.119716e-05  -2.500138      -2.8617643     -4.7538166     -6.6990436    
    111100   1.1212592e-05 -2.500138      -2.95098       -4.8318561     -6.7700851    
    111200   1.1178598e-05 -2.500138      -3.0394607     -4.9091806     -6.8402948    
    111300   1.109595e-05  -2.500138      -3.1275022     -4.9859556     -6.9098196    
    111400   1.0967992e-05 -2.500138      -3.2154733     -5.0624046     -6.9788723    
    111500   1.0800051e-05 -2.500138      -3.3037701     -5.1388079     -7.0477264    
    111600   1.0598478e-05 -2.5008714     -3.3927444     -5.2154762     -7.1166938    
    111700   1.0369494e-05 -2.5066956     -3.482629      -5.2927026     -7.1860844    
    111800   1.0118123e-05 -2.5241755     -3.5734852     -5.370705      -7.256155     
    111900   9.8475227e-06 -2.5631193     -3.6651851     -5.4495744     -7.3270615    
    112000   9.5588566e-06 -2.6590981     -3.75743       -5.5292467     -7.3988281    
    112100   9.2516657e-06 -2.7643347     -3.8497934     -5.6095036     -7.4713424    
    112200   8.9245741e-06 -2.8682804     -3.9417754     -5.6900032     -7.5443976    
    112300   8.5761417e-06 -2.970348      -4.032854      -5.7703253     -7.6184496    
    112400   8.2057169e-06 -3.0699984     -4.1225222     -5.8500205     -7.6921921    
    112500   7.8141312e-06 -3.1667315     -4.2103053     -5.9286486     -7.7652133    
    112600   7.4040663e-06 -3.260071      -4.2957575     -6.0057997     -7.8371142    
    112700   6.9799747e-06 -3.3495573     -4.3784491     -6.0810965     -7.907518     
    112800   6.5475694e-06 -3.4347585     -4.4579566     -6.1541836     -7.9760702    
    112900   6.1130378e-06 -3.5152985     -4.5338689     -6.2247163     -8.0424344    
    113000   5.6821881e-06 -3.5908974     -4.6058122     -6.2923569     -8.1062909    
    113100   5.2597191e-06 -3.6614087     -4.6734861     -6.356787      -8.1673433    
    113200   4.8487491e-06 -3.7268441     -4.7367017     -6.4177325     -8.2253352    
    113300   4.4506924e-06 -3.7873751     -4.7954073     -6.4749952     -8.2800727    
    113400   4.0655145e-06 -3.843309      -4.8496946     -6.5284812     -8.331889     
    113500   3.692296e-06  -3.8950442     -4.8997837     -6.5782153     -8.3804649    
    113600   3.3299485e-06 -3.9430166     -4.9459887     -6.6243374     -8.4256881    
    113700   2.977887e-06  -3.9876482     -4.988674      -6.6670794     -8.4676977    
    113800   2.6365072e-06 -4.0293116     -5.0282104     -6.7067307     -8.506698     
    113900   2.3073919e-06 -4.0683128     -5.0649402     -6.7435994     -8.5429328    
    114000   1.9932279e-06 -4.104891      -5.0991582     -6.7779792     -8.5766599    
    114100   1.6974546e-06 -4.139228      -5.1311076     -6.8101288     -8.6081317    
    114200   1.4237098e-06 -4.1714561     -5.1609844     -6.840263      -8.6375824    
    114300   1.1751944e-06 -4.2016599     -5.1889439     -6.8685548     -8.6652209    
    114400   9.541195e-07  -4.229868      -5.2151011     -6.8951394     -8.6912273    
    114500   7.6137392e-07 -4.2560388     -5.239523      -6.9201169     -8.7157488    
    114600   5.9648035e-07 -4.2800459     -5.2622143     -6.9435481     -8.7396321    
    114700   4.5782522e-07 -4.3016727     -5.2831033     -6.9654457     -8.7622822    
    114800   3.4309074e-07 -4.3206197     -5.3020344     -6.9857619     -8.7836019    
    114900   2.4978865e-07 -4.3365289     -5.3187723     -7.0043814     -8.8034815    
    115000   1.7577987e-07 -4.3490207     -5.3330211     -7.0211221     -8.8217469    
    115100   1.1966327e-07 -4.357735      -5.3444538     -7.0357486     -8.8381721    
    115200   8.094539e-08  -4.3623691     -5.3527487     -7.0479951     -8.8524994    
    115300   5.9962427e-08 -4.3627038     -5.3576227     -7.0575947     -8.8644649    
    115400   5.7592571e-08 -4.3586139     -5.3588561     -7.0643077     -8.8738238    
    115500   7.4841255e-08 -4.3500659     -5.3563057     -7.0679425     -8.8803714    
    115600   1.1239627e-07 -4.3371065     -5.3499043     -7.0683677     -8.8839562    
    115700   1.7024653e-07 -4.3198485     -5.3396538     -7.0655134     -8.884485     
    115800   2.4744703e-07 -4.2984608     -5.3256139     -7.0593658     -8.8819201    
    115900   3.4208741e-07 -4.2731625     -5.3078943     -7.049958      -8.8762736    
    116000   4.5147438e-07 -4.2442235     -5.2866519     -7.0373641     -8.8676007    
    116100   5.724799e-07  -4.2119652     -5.2620919     -7.0216955     -8.8559964    
    116200   7.0196305e-07 -4.1767581     -5.2344706     -7.0031033     -8.8415949    
    116300   8.3716289e-07 -4.1390112     -5.2040951     -6.9817815     -8.824571     
    116400   9.7597965e-07 -4.0991521     -5.171315      -6.9579682     -8.8053044    
    116500   1.1170945e-06 -4.0575997     -5.1365068     -6.9319419     -8.7841673    
    116600   1.2599129e-06 -4.0147344     -5.1000501     -6.9040092     -8.7610304    
    116700   1.4043508e-06 -3.9708711     -5.0623008     -6.874487      -8.7361774    
    116800   1.5505187e-06 -3.9262425     -5.0235661     -6.8436802     -8.7098955    
    116900   1.6983813e-06 -3.8809927     -4.9840861     -6.8118594     -8.6824564    
    117000   1.8474749e-06 -3.8351834     -4.9440255     -6.7792442     -8.6540991    
    117100   1.9967451e-06 -3.7888077     -4.9034758     -6.7459938     -8.6250173    
    117200   2.144534e-06  -3.7418076     -4.862465      -6.7122055     -8.5953529    
    117300   2.288717e-06  -3.6940906     -4.8209714     -6.6779211     -8.5656917    
    117400   2.4269536e-06 -3.6455423     -4.7789371     -6.643137      -8.5356076    
    117500   2.556999e-06  -3.5960349     -4.7362786     -6.6078156     -8.5050693    
    117600   2.6770004e-06 -3.5454331     -4.6928939     -6.5718952     -8.4740131    
    117700   2.7857098e-06 -3.4936004     -4.6486682     -6.5352969     -8.4423506    
    117800   2.8825646e-06 -3.4404085     -4.6034784     -6.4979306     -8.4099757    
    117900   2.9676271e-06 -3.3857502     -4.5572023     -6.4596994     -8.3767732    
    118000   3.0414073e-06 -3.3295569     -4.5097295     -6.4205061     -8.3426265    
    118100   3.1046161e-06 -3.2718145     -4.4609771     -6.3802627     -8.3074285    
    118200   3.1579064e-06 -3.2125772     -4.4109048     -6.3389007     -8.2710927    
    118300   3.2016569e-06 -3.1519733     -4.3595288     -6.2963837     -8.2335644    
    118400   3.2358467e-06 -3.0902034     -4.3069288     -6.2527175     -8.1948307    
    118500   3.2600448e-06 -3.0275293     -4.2532488     -6.2079574     -8.1549267    
    118600   3.2735141e-06 -2.9642578     -4.1986898     -6.1622097     -8.1139372    
    118700   3.2753994e-06 -2.9007215     -4.143497      -6.1156276     -8.0719933    
    118800   3.2649536e-06 -2.8372608     -4.0879447     -6.0684027     -8.0298528    
    118900   3.2417469e-06 -2.7742091     -4.0323211     -6.0207536     -7.9872025    
    119000   3.2058129e-06 -2.7118824     -3.9769155     -5.9729148     -7.9441454    
    119100   3.1576991e-06 -2.6505724     -3.9220094     -5.9251255     -7.9008876    
    119200   3.0984135e-06 -2.5905408     -3.8678694     -5.8776222     -7.8576418    
    119300   3.0292802e-06 -2.5341759     -3.8147416     -5.8306324     -7.8146215    
    119400   2.9517435e-06 -2.510306      -3.7628464     -5.7843692     -7.7720366    
    119500   2.8671664e-06 -2.5017727     -3.7123709     -5.7390271     -7.7300868    
    119600   2.776667e-06  -2.5001644     -3.6634615     -5.6947751     -7.6889558    
    119700   2.6810265e-06 -2.500138      -3.616216      -5.6517509     -7.6488033    
    119800   2.5806816e-06 -2.500138      -3.5706791     -5.6100536     -7.6097575    
    119900   2.4758002e-06 -2.500138      -3.5268407     -5.5697393     -7.5719084    
    120000   2.3664185e-06 -2.500138      -3.4846419     -5.5308186     -7.5353039    
    120100   2.2526083e-06 -2.500138      -3.4439837     -5.4932601     -7.49995      
    120200   2.1346323e-06 -2.500138      -3.4047415     -5.4569962     -7.4658144    
    120300   2.0130501e-06 -2.500138      -3.3667799     -5.4219348     -7.4328346    
    120400   1.8887516e-06 -2.500138      -3.3299671     -5.3879705     -7.4009271    
    120500   1.7629113e-06 -2.500138      -3.2941867     -5.3549981     -7.3699986    
    120600   1.6368771e-06 -2.500138      -3.2593455     -5.3229219     -7.3399556    
    120700   1.5120204e-06 -2.500138      -3.2253782     -5.291664      -7.3107325    
    120800   1.3895833e-06 -2.500138      -3.1922497     -5.2611688     -7.2821989    
    120900   1.270556e-06  -2.500138      -3.1599558     -5.2314049     -7.2543579    
    121000   1.1556096e-06 -2.500138      -3.1285244     -5.2023661     -7.2271611    
    121100   1.0450974e-06 -2.500138      -3.0980155     -5.1740718     -7.2005986    
    121200   9.3911819e-07 -2.500138      -3.0685212     -5.1465669     -7.1746865    
    121300   8.3762445e-07 -2.500138      -3.0401646     -5.1199223     -7.1494668    
    121400   7.4054956e-07 -2.500138      -3.0130955     -5.0942334     -7.1250071    
    121500   6.4792436e-07 -2.500138      -2.9874829     -5.0696181     -7.101399     
    121600   5.5995741e-07 -2.500138      -2.9635054     -5.0462115     -7.0787539    
    121700   4.770609e-07  -2.500138      -2.9413391     -5.0241589     -7.0571978    
    121800   3.9981782e-07 -2.500138      -2.9211454     -5.0036063     -7.0368632    
    121900   3.2889974e-07 -2.500138      -2.9030602     -4.9846913     -7.0178817    
    122000   2.6495671e-07 -2.500138      -2.8871856     -4.9675333     -7.0003755    
    122100   2.0850625e-07 -2.500138      -2.8735858     -4.9522268     -6.9844508    
    122200   1.5984661e-07 -2.500138      -2.8622851     -4.9388362     -6.9701924    
    122300   1.1901277e-07 -2.500138      -2.8532702     -4.9273945     -6.9576606    
    122400   8.5782618e-08 -2.500138      -2.8464922     -4.9179031     -6.946889     
    122500   5.9730187e-08 -2.500138      -2.8418716     -4.910334      -6.9378841    
    122600   4.0312425e-08 -2.500138      -2.8393018     -4.9046324     -6.930626     
    122700   2.6969353e-08 -2.500138      -2.8386535     -4.9007198     -6.925069     
    122800   1.9215121e-08 -2.500138      -2.8397802     -4.8984975     -6.9211438    
    122900   1.6700344e-08 -2.500138      -2.8425239     -4.8978503     -6.9187602    
    123000   1.9233233e-08 -2.500138      -2.8467225     -4.8986514     -6.9178115    
    123100   2.6756735e-08 -2.500138      -2.8522182     -4.9007688     -6.9181797    
    123200   3.928904e-08  -2.500138      -2.8588662     -4.9040713     -6.919742     
    123300   5.6843134e-08 -2.500138      -2.8665427     -4.908437      -6.9223782    
    123400   7.9345605e-08 -2.500138      -2.8751514     -4.9137594     -6.925978     
    123500   1.0657431e-07 -2.500138      -2.8846272     -4.9199537     -6.9304465    
    123600   1.381291e-07  -2.500138      -2.8949369     -4.9269599     -6.9357091    
    123700   1.734411e-07  -2.500138      -2.9060775     -4.9347443     -6.9417137    
    123800   2.1181707e-07 -2.500138      -2.9180713     -4.9432978     -6.9484312    
    123900   2.525077e-07  -2.500138      -2.930961      -4.9526325     -6.9558539    
    124000   2.9478447e-07 -2.500138      -2.9448031     -4.9627777     -6.9639925    
    124100   3.3800842e-07 -2.500138      -2.9596617     -4.9737745     -6.9728724    
    124200   3.8167648e-07 -2.500138      -2.9756035     -4.9856714     -6.9825301    
    124300   4.2543645e-07 -2.500138      -2.9926915     -4.9985191     -6.9930092    
    124400   4.6906871e-07 -2.500138      -3.0109803     -5.0123672     -7.0043559    
    124500   5.1244079e-07 -2.500138      -3.0305108     -5.0272593     -7.0166159    
    124600   5.5544658e-07 -2.500138      -3.0513049     -5.0432293     -7.0298294    
    124700   5.9794556e-07 -2.500138      -3.0733613     -5.0602974     -7.0440277    
    124800   6.3971618e-07 -2.500138      -3.0966516     -5.0784658     -7.0592292    
    124900   6.8043405e-07 -2.500138      -3.1211189     -5.0977159     -7.0754354    
    125000   7.1967906e-07 -2.500138      -3.1466778     -5.1180062     -7.092629     
    125100   7.5696877e-07 -2.500138      -3.1732169     -5.139272      -7.1107721    
    125200   7.9180961e-07 -2.500138      -3.2006037     -5.1614269     -7.1298065    
    125300   8.2375369e-07 -2.500138      -3.2286904     -5.1843658     -7.1496552    
    125400   8.5244858e-07 -2.500138      -3.2573206     -5.2079699     -7.1702252    
    125500   8.7766938e-07 -2.500138      -3.2863362     -5.2321114     -7.1914111    
    125600   8.9932674e-07 -2.500138      -3.3155835     -5.2566596     -7.2130996    
    125700   9.1745005e-07 -2.500138      -3.3449184     -5.2814856     -7.2351737    
    125800   9.3215035e-07 -2.500138      -3.3742108     -5.3064667     -7.2575172    
    125900   9.4357227e-07 -2.500138      -3.4033482     -5.331491      -7.2800187    
    126000   9.5184625e-07 -2.500138      -3.432238      -5.3564597     -7.3025756    
    126100   9.570521e-07  -2.500138      -3.4608097     -5.3812903     -7.325097     
    126200   9.5920154e-07 -2.500138      -3.4890161     -5.4059177     -7.3475065    
    126300   9.5824263e-07 -2.500138      -3.5168327     -5.4302959     -7.3697447    
    126400   9.5408381e-07 -2.500138      -3.5442574     -5.4543978     -7.3917697    
    126500   9.4663079e-07 -2.500138      -3.5713066     -5.4782143     -7.4135574    
    126600   9.3582724e-07 -2.500138      -3.5980119     -5.5017522     -7.4351004    
    126700   9.2168966e-07 -2.500138      -3.6244145     -5.5250312     -7.4564054    
    126800   9.0432862e-07 -2.5002422     -3.6505593     -5.548079      -7.4774898    
    126900   8.8395185e-07 -2.5018816     -3.6764889     -5.5709278     -7.4983783    
    127000   8.608489e-07  -2.511709      -3.7022387     -5.5936084     -7.5190983    
    127100   8.3536116e-07 -2.5377158     -3.7278319     -5.616147      -7.5396759    
    127200   8.0784417e-07 -2.5666333     -3.753277      -5.638561      -7.5601328    
    127300   7.7863072e-07 -2.5953395     -3.7785654     -5.6608566     -7.580483     
    127400   7.4800264e-07 -2.623772      -3.803671      -5.6830271     -7.6007313    
    127500   7.1617708e-07 -2.6518506     -3.8285503     -5.7050523     -7.6208712    
    127600   6.8330937e-07 -2.6794793     -3.8531432     -5.7268982     -7.6408845    
    127700   6.4951063e-07 -2.7065499     -3.8773748     -5.7485172     -7.6607411    
    127800   6.1487513e-07 -2.7329462     -3.9011578     -5.7698499     -7.6803988    
    127900   5.7951029e-07 -2.7585483     -3.9243952     -5.790826      -7.6998043    
    128000   5.4356205e-07 -2.7832381     -3.9469847     -5.8113668     -7.7188946    
    128100   5.0722996e-07 -2.8069046     -3.9688227     -5.8313881     -7.7375988    
    128200   4.7076852e-07 -2.829449      -3.9898091     -5.8508039     -7.7558414    
    128300   4.344749e-07  -2.8507897     -4.0098522     -5.8695298     -7.7735447    
    128400   3.9866601e-07 -2.8708651     -4.0288733     -5.8874872     -7.7906331    
    128500   3.6365023e-07 -2.8896362     -4.0468097     -5.9046072     -7.807036     
    128600   3.2970011e-07 -2.9070867     -4.0636173     -5.9208333     -7.8226915    
    128700   2.9703218e-07 -2.9232224     -4.0792718     -5.936124      -7.8376468    
    128800   2.6579769e-07 -2.9380688     -4.0937683     -5.9504538     -7.8517546    
    128900   2.3608595e-07 -2.9516684     -4.1071202     -5.963813      -7.8649478    
    129000   2.0793865e-07 -2.964077      -4.1193567     -5.9762073     -7.8772176    
    129100   1.8137138e-07 -2.9753598     -4.1305205     -5.9876559     -7.8885713    
    129200   1.5639693e-07 -2.9855873     -4.1406641     -5.9981892     -7.8990351    
    129300   1.3304496e-07 -2.9948311     -4.1498469     -6.0078465     -7.908793     
    129400   1.1137378e-07 -3.00316       -4.1581313     -6.016673      -7.9177634    
    129500   9.1471877e-08 -3.0106356     -4.1655791     -6.0247168     -7.9259863    
    129600   7.3449312e-08 -3.0173094     -4.1722478     -6.0320266     -7.9335045    
    129700   5.7421335e-08 -3.0232192     -4.1781878     -6.0386478     -7.9403607    
    129800   4.3488332e-08 -3.0283878     -4.1834387     -6.0446208     -7.9465949    
    129900   3.1716754e-08 -3.0328216     -4.1880282     -6.0499782     -7.952242     
    130000   2.2125422e-08 -3.0365111     -4.1919698     -6.0547432     -7.9573298    
    130100   1.4680181e-08 -3.0394324     -4.1952633     -6.0589283     -7.9618774    
    130200   9.2979084e-09 -3.0415498     -4.1978954     -6.0625352     -7.9658949    
    130300   5.8586868e-09 -3.0428188     -4.1998413     -6.0655552     -7.969383     
    130400   4.2231753e-09 -3.0431903     -4.2010673     -6.0679703     -7.9723338    
    130500   4.2511558e-09 -3.0426142     -4.2015338     -6.0697549     -7.9747313    
    130600   5.8171798e-09 -3.0410431     -4.2011986     -6.0708786     -7.9765535    
    130700   8.8200967e-09 -3.0384362     -4.2000198     -6.0713078     -7.9777741    
    130800   1.3184782e-08 -3.0347621     -4.1979593     -6.0710089     -7.9783641    
    130900   1.885622e-08  -3.0300018     -4.1949856     -6.0699507     -7.9782942    
    131000   2.5787815e-08 -3.0241501     -4.1910766     -6.0681064     -7.9775369    
    131100   3.3927016e-08 -3.017218      -4.1862211     -6.0654565     -7.9760686    
    131200   4.3201839e-08 -3.0092322     -4.1804212     -6.0619899     -7.9738717    
    131300   5.3511492e-08 -3.0002357     -4.1736931     -6.0577061     -7.9710559    
    131400   6.4723273e-08 -2.9902864     -4.166067      -6.0526159     -7.9674654    
    131500   7.6676392e-08 -2.9794548     -4.1575867     -6.0467416     -7.963105     
    131600   8.9191768e-08 -2.9678215     -4.1483083     -6.0401169     -7.9579932    
    131700   1.0208552e-07 -2.9554736     -4.1382979     -6.0327858     -7.952161     
    131800   1.1518311e-07 -2.9425011     -4.1276289     -6.0248009     -7.9456506    
    131900   1.2833112e-07 -2.9289931     -4.1163786     -6.0162214     -7.9385137    
    132000   1.4140425e-07 -2.9150344     -4.1046253     -6.00711       -7.9309219    
    132100   1.5430638e-07 -2.9007025     -4.092445      -5.9975308     -7.9228681    
    132200   1.669658e-07  -2.886065      -4.0799088     -5.9875466     -7.9143857    
    132300   1.7932622e-07 -2.8711782     -4.0670803     -5.9772166     -7.9055301    
    132400   1.9133579e-07 -2.8560859     -4.0540141     -5.9665943     -7.8963537    
    132500   2.0293687e-07 -2.8408189     -4.0407544     -5.9557264     -7.886904     
    132600   2.1405893e-07 -2.8253957     -4.0273346     -5.9446515     -7.8772223    
    132700   2.2461612e-07 -2.8098231     -4.0137769     -5.9333996     -7.8673428    
    132800   2.3451004e-07 -2.7940981     -4.000093      -5.9219917     -7.8572918    
    132900   2.4363681e-07 -2.7782099     -3.9862852     -5.9104409     -7.8470883    
    133000   2.518968e-07  -2.7621424     -3.972348      -5.8987521     -7.8367435    
    133100   2.5920472e-07 -2.7458777     -3.95827       -5.8869238     -7.8262619    
    133200   2.6549779e-07 -2.7293983     -3.9440367     -5.8749498     -7.8156426    
    133300   2.7074024e-07 -2.7126911     -3.9296327     -5.8628206     -7.8048805    
    133400   2.7492326e-07 -2.6957491     -3.9150445     -5.8505255     -7.7939678    
    133500   2.780607e-07  -2.6785745     -3.9002634     -5.8380553     -7.7828963    
    133600   2.8018151e-07 -2.6611794     -3.8852869     -5.8254036     -7.7716587    
    133700   2.8132086e-07 -2.6435874     -3.8701208     -5.8125691     -7.7602504    
    133800   2.8151191e-07 -2.6258329     -3.8547804     -5.7995567     -7.7486715    
    133900   2.8078002e-07 -2.6079614     -3.8392905     -5.7863788     -7.736927     
    134000   2.7914049e-07 -2.5900274     -3.8236853     -5.7730553     -7.7250288    
    134100   2.7660024e-07 -2.5720936     -3.808008      -5.7596142     -7.7129952    
    134200   2.7316268e-07 -2.5542279     -3.7923094     -5.7460906     -7.7008514    
    134300   2.6883446e-07 -2.536502      -3.7766463     -5.7325263     -7.6886291    
    134400   2.6363248e-07 -2.5189882     -3.7610795     -5.7189679     -7.676366     
    134500   2.5758935e-07 -2.5029287     -3.7456717     -5.7054662     -7.664104     
    134600   2.5075612e-07 -2.5007922     -3.7304854     -5.6920736     -7.6518886    
    134700   2.4320154e-07 -2.5004614     -3.7155801     -5.6788424     -7.6397667    
    134800   2.3500826e-07 -2.500138      -3.7010106     -5.6658233     -7.6277855    
    134900   2.2626664e-07 -2.500138      -3.6868247     -5.653063      -7.6159898    
    135000   2.1706769e-07 -2.500138      -3.6730621     -5.6406031     -7.6044213    
    135100   2.0749662e-07 -2.500138      -3.659753      -5.6284784     -7.5931168    
    135200   1.9762832e-07 -2.500138      -3.6469176     -5.6167163     -7.582107     
    135300   1.8752558e-07 -2.500138      -3.6345666     -5.6053362     -7.571416     
    135400   1.7724028e-07 -2.500138      -3.6227015     -5.5943498     -7.5610609    
    135500   1.6681691e-07 -2.500138      -3.6113159     -5.583761      -7.5510519    
    135600   1.5629766e-07 -2.500138      -3.6003967     -5.5735674     -7.5413928    
    135700   1.4572745e-07 -2.500138      -3.589926      -5.5637609     -7.5320816    
    135800   1.3515795e-07 -2.500138      -3.5798832     -5.5543294     -7.5231116    
    135900   1.2464942e-07 -2.500138      -3.5702464     -5.5452579     -7.5144726    
    136000   1.1427014e-07 -2.500138      -3.560995      -5.5365305     -7.506152     
    136100   1.0409338e-07 -2.500138      -3.5521108     -5.5281315     -7.4981365    
    136200   9.4192883e-08 -2.500138      -3.54358       -5.5200471     -7.4904131    
    136300   8.4637574e-08 -2.500138      -3.5353945     -5.5122667     -7.4829703    
    136400   7.5486986e-08 -2.500138      -3.5275524     -5.5047838     -7.4757998    
    136500   6.6788113e-08 -2.500138      -3.5200588     -5.497597      -7.4688968    
    136600   5.8574421e-08 -2.500138      -3.5129258     -5.4907104     -7.4622609    
    136700   5.0867063e-08 -2.500138      -3.5061714     -5.4841337     -7.4558966    
    136800   4.3677924e-08 -2.500138      -3.4998194     -5.4778818     -7.4498134    
    136900   3.7013677e-08 -2.500138      -3.4938974     -5.4719739     -7.4440248    
    137000   3.0879898e-08 -2.500138      -3.4884356     -5.4664329     -7.4385486    
    137100   2.5284278e-08 -2.500138      -3.4834648     -5.4612838     -7.4334054    
    137200   2.023826e-08  -2.500138      -3.4790147     -5.4565526     -7.4286178    
    137300   1.5756787e-08 -2.500138      -3.4751124     -5.4522645     -7.4242088    
    137400   1.1856326e-08 -2.500138      -3.4717806     -5.4484427     -7.420201     
    137500   8.5516977e-09 -2.500138      -3.4690363     -5.4451069     -7.4166149    
    137600   5.8525175e-09 -2.500138      -3.4668901     -5.4422726     -7.4134683    
    137700   3.7600879e-09 -2.500138      -3.4653451     -5.4399497     -7.4107745    
    137800   2.2654708e-09 -2.500138      -3.4643968     -5.4381423     -7.4085423    
    137900   1.349161e-09  -2.500138      -3.4640334     -5.4368483     -7.4067749    
    138000   9.8241221e-10 -2.500138      -3.464236      -5.4360592     -7.40547      
    138100   1.1298921e-09 -2.500138      -3.4649795     -5.4357609     -7.40462      
    138200   1.7530608e-09 -2.500138      -3.4662337     -5.435934      -7.4042116    
    138300   2.8135318e-09 -2.500138      -3.467965      -5.4365548     -7.4042275    
    138400   4.2757122e-09 -2.500138      -3.4701377     -5.4375964     -7.4046465    
    138500   6.1082146e-09 -2.500138      -3.4727155     -5.4390302     -7.4054446    
    138600   8.2838335e-09 -2.500138      -3.4756633     -5.4408266     -7.4065965    
    138700   1.0778216e-08 -2.500138      -3.4789485     -5.4429569     -7.4080763    
    138800   1.3567643e-08 -2.500138      -3.4825424     -5.4453942     -7.409859     
    138900   1.6626532e-08 -2.500138      -3.4864207     -5.4481142     -7.4119211    
    139000   1.9925286e-08 -2.500138      -3.4905645     -5.4510964     -7.4142416    
    139100   2.3429042e-08 -2.500138      -3.4949601     -5.4543243     -7.416803     
    139200   2.7097613e-08 -2.500138      -3.4995997     -5.457786      -7.4195911    
    139300   3.0886638e-08 -2.500138      -3.5044802     -5.4614736     -7.4225957    
    139400   3.4749705e-08 -2.500138      -3.5096027     -5.4653838     -7.4258105    
    139500   3.8640956e-08 -2.500138      -3.5149721     -5.4695166     -7.4292328    
    139600   4.2517629e-08 -2.500138      -3.5205952     -5.4738751     -7.4328628    
    139700   4.6342013e-08 -2.500138      -3.5264798     -5.4784643     -7.4367036    
    139800   5.0082432e-08 -2.500138      -3.5326333     -5.4832901     -7.4407595    
    139900   5.3713141e-08 -2.500138      -3.5390616     -5.4883583     -7.4450359    
    140000   5.7213223e-08 -2.500138      -3.5457674     -5.4936735     -7.4495375    
    140100   6.0564827e-08 -2.500138      -3.5527498     -5.4992379     -7.4542682    
    140200   6.3751199e-08 -2.500138      -3.5600029     -5.5050509     -7.4592295    
    140300   6.6755002e-08 -2.500138      -3.567516      -5.5111077     -7.4644202    
    140400   6.9557289e-08 -2.500138      -3.5752728     -5.5173995     -7.4698355    
    140500   7.2137389e-08 -2.500138      -3.5832521     -5.5239133     -7.4754669    
    140600   7.4473678e-08 -2.500138      -3.5914279     -5.5306315     -7.4813022    
    140700   7.654505e-08  -2.500138      -3.5997702     -5.5375328     -7.4873251    
    140800   7.833273e-08  -2.500138      -3.6082461     -5.5445923     -7.4935161    
    140900   7.9822006e-08 -2.500138      -3.6168204     -5.5517828     -7.4998524    
    141000   8.1003494e-08 -2.500138      -3.6254574     -5.5590748     -7.5063094    
    141100   8.1873658e-08 -2.500138      -3.6341215     -5.5664385     -7.5128605    
    141200   8.2434507e-08 -2.500138      -3.6427787     -5.5738437     -7.5194787    
    141300   8.2692544e-08 -2.500138      -3.6513976     -5.5812616     -7.5261373    
    141400   8.2657236e-08 -2.500138      -3.6599503     -5.5886653     -7.5328107    
    141500   8.2339351e-08 -2.500138      -3.6684131     -5.5960307     -7.5394749    
    141600   8.1749524e-08 -2.500138      -3.676767      -5.6033368     -7.5461088    
    141700   8.0897342e-08 -2.500138      -3.6849978     -5.6105667     -7.5526939    
    141800   7.9791122e-08 -2.500138      -3.6930961     -5.6177071     -7.5592156    
    141900   7.8438349e-08 -2.5002832     -3.7010571     -5.6247491     -7.5656624    
    142000   7.6846657e-08 -2.5005704     -3.7088796     -5.631687      -7.5720263    
    142100   7.5025037e-08 -2.5013988     -3.7165657     -5.6385186     -7.5783026    
    142200   7.2984985e-08 -2.509465      -3.7241197     -5.6452445     -7.5844896    
    142300   7.0741292e-08 -2.517769      -3.7315469     -5.6518671     -7.5905875    
    142400   6.8312279e-08 -2.525946      -3.738853      -5.6583899     -7.5965983    
    142500   6.5719409e-08 -2.5339982     -3.7460427     -5.6648167     -7.6025252    
    142600   6.2986365e-08 -2.5419243     -3.7531194     -5.6711511     -7.6083711    
    142700   6.0137796e-08 -2.5497196     -3.7600836     -5.6773952     -7.6141389    
    142800   5.7197971e-08 -2.5573753     -3.7669332     -5.6835492     -7.6198299    
    142900   5.4189652e-08 -2.5648786     -3.7736625     -5.689611      -7.6254438    
    143000   5.1133364e-08 -2.5722132     -3.7802624     -5.6955758     -7.6309783    
    143100   4.8047209e-08 -2.5793594     -3.7867204     -5.7014358     -7.6364283    
    143200   4.4947184e-08 -2.586295      -3.7930208     -5.7071805     -7.6417862    
    143300   4.1847907e-08 -2.5929963     -3.7991455     -5.7127966     -7.647042     
    143400   3.876352e-08  -2.5994388     -3.8050744     -5.7182689     -7.6521832    
    143500   3.5708545e-08 -2.6055985     -3.8107866     -5.7235803     -7.6571957    
    143600   3.2698465e-08 -2.6114528     -3.8162607     -5.7287129     -7.6620636    
    143700   2.9749901e-08 -2.6169814     -3.8214764     -5.7336485     -7.6667706    
    143800   2.6880325e-08 -2.6221672     -3.8264147     -5.7383696     -7.6713001    
    143900   2.4107393e-08 -2.6269971     -3.8310593     -5.7428595     -7.6756362    
    144000   2.1448027e-08 -2.6314619     -3.8353968     -5.7471039     -7.6797641    
    144100   1.8917473e-08 -2.6355573     -3.8394173     -5.7510907     -7.6836708    
    144200   1.6528519e-08 -2.6392831     -3.8431148     -5.7548106     -7.6873457    
    144300   1.4291039e-08 -2.6426438     -3.8464872     -5.7582577     -7.6907808    
    144400   1.2211947e-08 -2.6456474     -3.8495366     -5.7614291     -7.6939708    
    144500   1.0295541e-08 -2.6483052     -3.8522681     -5.7643254     -7.6969135    
    144600   8.5441475e-09 -2.650631      -3.8546905     -5.76695       -7.6996097    
    144700   6.9588981e-09 -2.6526403     -3.8568149     -5.7693092     -7.7020626    
    144800   5.540459e-09  -2.6543491     -3.8586543     -5.7714114     -7.704278     
    144900   4.2895567e-09 -2.6557734     -3.8602226     -5.7732668     -7.7062636    
    145000   3.2071887e-09 -2.6569281     -3.8615342     -5.7748863     -7.7080283    
    145100   2.2944942e-09 -2.6578262     -3.8626028     -5.7762816     -7.7095821    
    145200   1.5523347e-09 -2.6584787     -3.8634412     -5.7774639     -7.7109349    
    145300   9.8070206e-10 -2.6588935     -3.8640601     -5.7784434     -7.7120966    
    145400   5.7810579e-10 -2.6590757     -3.864468      -5.7792294     -7.7130761    
    145500   3.4109149e-10 -2.6590276     -3.8646711     -5.7798288     -7.7138811    
    145600   2.640066e-10  -2.6587484     -3.8646728     -5.7802471     -7.7145176    
    145700   3.3907078e-10 -2.6582353     -3.864474      -5.7804871     -7.7149899    
    145800   5.5673739e-10 -2.6574832     -3.8640732     -5.7805499     -7.7153001    
    145900   9.0626794e-10 -2.656486      -3.8634672     -5.7804345     -7.7154487    
    146000   1.3763978e-09 -2.6552372     -3.8626512     -5.7801381     -7.7154344    
    146100   1.9559558e-09 -2.6537303     -3.8616194     -5.7796569     -7.7152543    
    146200   2.6343179e-09 -2.6519598     -3.8603663     -5.7789862     -7.7149045    
    146300   3.4016173e-09 -2.6499221     -3.8588864     -5.778121      -7.7143807    
    146400   4.248692e-09  -2.6476155     -3.8571756     -5.7770568     -7.7136781    
    146500   5.1668114e-09 -2.6450413     -3.8552314     -5.7757899     -7.7127926    
    146600   6.1472715e-09 -2.642204      -3.8530537     -5.7743178     -7.7117207    
    146700   7.1809741e-09 -2.639111      -3.8506446     -5.7726401     -7.7104605    
    146800   8.2581018e-09 -2.635773      -3.8480092     -5.7707581     -7.7090115    
    146900   9.3679784e-09 -2.6322039     -3.8451554     -5.7686758     -7.7073753    
    147000   1.0499151e-08 -2.62842       -3.8420939     -5.7663991     -7.7055555    
    147100   1.1639686e-08 -2.6244398     -3.8388377     -5.7639367     -7.703558     
    147200   1.2777612e-08 -2.6202833     -3.8354022     -5.7612991     -7.7013905    
    147300   1.3901423e-08 -2.6159715     -3.8318042     -5.7584988     -7.699063     
    147400   1.5000538e-08 -2.6115256     -3.8280619     -5.7555497     -7.6965867    
    147500   1.6065618e-08 -2.6069661     -3.8241937     -5.7524669     -7.6939745    
    147600   1.7088706e-08 -2.6023127     -3.8202182     -5.7492657     -7.6912399    
    147700   1.806315e-08  -2.5975831     -3.8161532     -5.7459619     -7.688397     
    147800   1.8983365e-08 -2.5927933     -3.8120152     -5.7425706     -7.6854597    
    147900   1.98445e-08   -2.5879564     -3.8078194     -5.739106      -7.6824417    
    148000   2.0642082e-08 -2.5830833     -3.8035785     -5.7355812     -7.6793556    
    148100   2.1371739e-08 -2.5781821     -3.7993035     -5.7320076     -7.6762131    
    148200   2.2029062e-08 -2.5732586     -3.7950027     -5.7283947     -7.6730241    
    148300   2.2609629e-08 -2.5683163     -3.7906823     -5.7247502     -7.669797     
    148400   2.3109186e-08 -2.5633569     -3.7863466     -5.72108       -7.6665386    
    148500   2.3523934e-08 -2.5583809     -3.7819977     -5.7173882     -7.6632538    
    148600   2.3850858e-08 -2.5533881     -3.7776368     -5.7136771     -7.6599461    
    148700   2.4088013e-08 -2.548378      -3.7732638     -5.7099482     -7.6566174    
    148800   2.423471e-08  -2.5433507     -3.7688782     -5.7062018     -7.6532688    
    148900   2.429155e-08  -2.5383069     -3.7644797     -5.7024379     -7.6499006    
    149000   2.4260317e-08 -2.5332488     -3.7600684     -5.6986564     -7.6465125    
    149100   2.4143733e-08 -2.5281804     -3.7556455     -5.6948577     -7.6431045    
    149200   2.3945153e-08 -2.5231076     -3.7512134     -5.6910427     -7.6396769    
    149300   2.3668247e-08 -2.5180381     -3.7467761     -5.6872135     -7.6362308    
    149400   2.3316749e-08 -2.512982      -3.7423394     -5.6833736     -7.6327681    
    149500   2.28943e-08   -2.507951      -3.737911      -5.6795278     -7.6292922    
    149600   2.2404432e-08 -2.5029584     -3.7335001     -5.6756824     -7.6258077    
    149700   2.1850663e-08 -2.5007322     -3.7291176     -5.6718452     -7.6223205    
    149800   2.1236671e-08 -2.5006325     -3.7247758     -5.6680255     -7.6188382    
    149900   2.0566504e-08 -2.5005356     -3.7204876     -5.6642334     -7.6153692    
    150000   1.9844755e-08 -2.5004404     -3.7162668     -5.6604802     -7.6119231    
    150100   1.907666e-08  -2.5003458     -3.7121269     -5.6567774     -7.6085102    
    150200   1.8268096e-08 -2.5002506     -3.7080814     -5.6531368     -7.6051413    
    150300   1.7425459e-08 -2.5001543     -3.7041426     -5.6495701     -7.6018272    
    150400   1.6555459e-08 -2.500138      -3.7003218     -5.646088      -7.5985784    
    150500   1.5664865e-08 -2.500138      -3.6966288     -5.6427007     -7.5954049    
    150600   1.4760252e-08 -2.500138      -3.6930713     -5.6394169     -7.5923157    
    150700   1.38478e-08   -2.500138      -3.6896555     -5.6362439     -7.5893188    
    150800   1.2933175e-08 -2.500138      -3.6863853     -5.6331874     -7.5864208    
    150900   1.2021508e-08 -2.500138      -3.6832627     -5.6302514     -7.5836266    
    151000   1.1117473e-08 -2.500138      -3.6802881     -5.6274385     -7.5809399    
    151100   1.0225416e-08 -2.500138      -3.67746       -5.6247493     -7.5783628    
    151200   9.3495181e-09 -2.500138      -3.6747758     -5.6221835     -7.5758959    
    151300   8.4939294e-09 -2.500138      -3.6722322     -5.6197394     -7.5735387    
    151400   7.6628532e-09 -2.500138      -3.6698249     -5.6174144     -7.5712897    
    151500   6.8605471e-09 -2.500138      -3.6675498     -5.6152055     -7.5691464    
    151600   6.0912459e-09 -2.500138      -3.6654029     -5.6131095     -7.5671062    
    151700   5.3590213e-09 -2.500138      -3.6633808     -5.6111232     -7.5651662    
    151800   4.6676092e-09 -2.500138      -3.661481      -5.6092439     -7.5633235    
    151900   4.0202419e-09 -2.500138      -3.6597018     -5.6074695     -7.5615758    
    152000   3.4195211e-09 -2.500138      -3.658043      -5.6057988     -7.5599213    
    152100   2.8673578e-09 -2.500138      -3.6565054     -5.6042313     -7.5583592    
    152200   2.3649872e-09 -2.500138      -3.655091      -5.6027679     -7.5568892    
    152300   1.9130527e-09 -2.500138      -3.653803      -5.6014102     -7.5555124    
    152400   1.5117379e-09 -2.500138      -3.6526453     -5.6001608     -7.5542304    
    152500   1.1609134e-09 -2.500138      -3.6516224     -5.5990231     -7.5530459    
    152600   8.6026864e-10 -2.500138      -3.6507391     -5.598001      -7.5519623    
    152700   6.093988e-10  -2.500138      -3.6500003     -5.5970985     -7.5509831    
    152800   4.0783382e-10 -2.500138      -3.6494103     -5.59632       -7.5501126    
    152900   2.5500666e-10 -2.500138      -3.6489728     -5.5956694     -7.5493546    
    153000   1.5017477e-10 -2.500138      -3.6486907     -5.5951502     -7.548713     
    153100   9.2318007e-11 -2.500138      -3.6485655     -5.594765      -7.5481909    
    153200   8.0041068e-11 -2.500138      -3.6485976     -5.5945156     -7.5477911    
    153300   1.1150679e-10 -2.500138      -3.6487855     -5.5944027     -7.5475149    
    153400   1.8441857e-10 -2.500138      -3.6491266     -5.5944256     -7.5473632    
    153500   2.9605868e-10 -2.500138      -3.6496168     -5.5945825     -7.5473353    
    153600   4.4337638e-10 -2.500138      -3.6502505     -5.5948703     -7.5474295    
    153700   6.2310897e-10 -2.500138      -3.6510211     -5.5952847     -7.5476431    
    153800   8.3191218e-10 -2.500138      -3.6519211     -5.5958205     -7.547972     
    153900   1.0664755e-09 -2.500138      -3.6529423     -5.5964718     -7.5484115    
    154000   1.3236025e-09 -2.500138      -3.6540762     -5.5972316     -7.5489561    
    154100   1.600244e-09  -2.500138      -3.6553144     -5.5980932     -7.5495996    
    154200   1.8934857e-09 -2.500138      -3.6566487     -5.5990493     -7.5503357    
    154300   2.2004983e-09 -2.500138      -3.6580711     -5.600093      -7.5511579    
    154400   2.5184695e-09 -2.500138      -3.6595748     -5.6012176     -7.5520599    
    154500   2.8445382e-09 -2.500138      -3.6611537     -5.602417      -7.5530357    
    154600   3.1757516e-09 -2.500138      -3.6628025     -5.603686      -7.5540798    
    154700   3.5090567e-09 -2.500138      -3.6645172     -5.6050199     -7.5551876    
    154800   3.8413326e-09 -2.500138      -3.6662947     -5.606415      -7.5563549    
    154900   4.1694581e-09 -2.500138      -3.6681326     -5.6078685     -7.5575785    
    155000   4.4904009e-09 -2.500138      -3.6700297     -5.6093782     -7.558856     
    155100   4.8013122e-09 -2.500138      -3.671985      -5.6109428     -7.5601857    
    155200   5.0996065e-09 -2.500138      -3.6739979     -5.6125612     -7.5615664    
    155300   5.3830135e-09 -2.500138      -3.6760681     -5.614233      -7.5629974    
    155400   5.6495936e-09 -2.500138      -3.6781949     -5.6159577     -7.5644784    
    155500   5.8977169e-09 -2.500138      -3.6803776     -5.6177348     -7.5660091    
    155600   6.1260147e-09 -2.500138      -3.6826145     -5.6195636     -7.5675892    
    155700   6.3333159e-09 -2.500138      -3.6849035     -5.6214428     -7.5692181    
    155800   6.5185863e-09 -2.500138      -3.6872415     -5.6233708     -7.5708948    
    155900   6.6808832e-09 -2.500138      -3.6896246     -5.6253449     -7.5726177    
    156000   6.8193371e-09 -2.500138      -3.6920478     -5.6273622     -7.5743846    
    156100   6.9331626e-09 -2.500138      -3.6945054     -5.6294184     -7.5761926    
    156200   7.0216945e-09 -2.500138      -3.6969906     -5.631509      -7.5780379    
    156300   7.0844404e-09 -2.5001801     -3.6994964     -5.6336283     -7.5799163    
    156400   7.1211354e-09 -2.5002415     -3.7020149     -5.6357704     -7.5818227    
    156500   7.131785e-09  -2.5003033     -3.7045381     -5.6379286     -7.5837514    
    156600   7.1166874e-09 -2.500366      -3.7070579     -5.6400963     -7.5856966    
    156700   7.0764278e-09 -2.50043       -3.7095666     -5.6422665     -7.5876518    
    156800   7.0118455e-09 -2.5004956     -3.7120565     -5.6444323     -7.5896108    
    156900   6.9239821e-09 -2.5005631     -3.7145208     -5.6465873     -7.5915674    
    157000   6.8140185e-09 -2.5006323     -3.7169532     -5.6487252     -7.5935154    
    157100   6.6832154e-09 -2.5007032     -3.7193484     -5.6508406     -7.5954493    
    157200   6.5328668e-09 -2.5007848     -3.7217019     -5.6529284     -7.5973639    
    157300   6.364274e-09  -2.5021038     -3.7240102     -5.6549847     -7.5992549    
    157400   6.1787431e-09 -2.5046042     -3.7262708     -5.6570061     -7.6011184    
    157500   5.9776014e-09 -2.5070476     -3.7284818     -5.6589899     -7.6029514    
    157600   5.7622266e-09 -2.509434      -3.7306423     -5.6609343     -7.6047517    
    157700   5.534078e-09  -2.5117633     -3.7327517     -5.6628382     -7.6065176    
    157800   5.2947195e-09 -2.5140357     -3.7348101     -5.6647007     -7.608248     
    157900   5.0458277e-09 -2.5162515     -3.7368176     -5.6665217     -7.6099424    
    158000   4.7891793e-09 -2.5184104     -3.7387745     -5.6683011     -7.6116005    
    158100   4.5266204e-09 -2.5205119     -3.7406808     -5.670039      -7.6132224    
    158200   4.2600217e-09 -2.5225551     -3.7425365     -5.6717352     -7.6148081    
    158300   3.991228e-09  -2.5245382     -3.744341      -5.6733896     -7.6163577    
    158400   3.7220108e-09 -2.5264588     -3.7460933     -5.6750018     -7.617871     
    158500   3.4540329e-09 -2.5283141     -3.7477916     -5.6765707     -7.6193475    
    158600   3.1888289e-09 -2.5301007     -3.7494339     -5.6780951     -7.6207864    
    158700   2.9278046e-09 -2.5318144     -3.7510175     -5.6795732     -7.6221865    
    158800   2.672251e-09  -2.5334512     -3.7525392     -5.6810026     -7.6235459    
    158900   2.4233691e-09 -2.5350065     -3.7539955     -5.6823808     -7.6248627    
    159000   2.1822957e-09 -2.5364761     -3.7553827     -5.6837047     -7.6261342    
    159100   1.9501242e-09 -2.5378557     -3.7566969     -5.6849711     -7.6273577    
    159200   1.7279141e-09 -2.5391415     -3.7579344     -5.6861766     -7.6285301    
    159300   1.5166863e-09 -2.5403303     -3.7590916     -5.6873181     -7.6296483    
    159400   1.317405e-09  -2.5414195     -3.7601654     -5.6883922     -7.6307092    
    159500   1.1309502e-09 -2.5424073     -3.7611532     -5.6893962     -7.6317097    
    159600   9.5808614e-10 -2.5432927     -3.7620529     -5.6903275     -7.6326471    
    159700   7.9943407e-10 -2.5440757     -3.7628634     -5.6911843     -7.6335192    
    159800   6.5545335e-10 -2.5447569     -3.763584      -5.6919649     -7.6343239    
    159900   5.2643598e-10 -2.5453379     -3.7642149     -5.6926688     -7.6350599    
    160000   4.125148e-10  -2.5458209     -3.764757      -5.6932956     -7.6357264    
Loop time of 9.91229 on 4 procs for 60000 steps with 9576 atoms

Performance: 52298696.627 tau/day, 6053.090 timesteps/s, 57.964 Matom-step/s
99.4% CPU use with 4 MPI tasks x 1 OpenMP threads

MPI task timing breakdown:
Section |  min time  |  avg time  |  max time  |%varavg| %total
---------------------------------------------------------------
Pair    | 0.47914    | 0.48922    | 0.49571    |   0.9 |  4.94
Bond    | 7.5724     | 7.6128     | 7.6634     |   1.4 | 76.80
Neigh   | 0.15227    | 0.15248    | 0.15265    |   0.0 |  1.54
Comm    | 0.32326    | 0.38609    | 0.44218    |   8.9 |  3.90
Output  | 0.017653   | 0.018436   | 0.020445   |   0.9 |  0.19
Modify  | 1.0015     | 1.0161     | 1.0289     |   1.0 | 10.25
Other   |            | 0.2372     |            |       |  2.39

Nlocal:           2394 ave        2427 max        2361 min
Histogram: 1 1 0 0 0 0 0 0 1 1
Nghost:          308.5 ave         313 max         305 min
Histogram: 1 0 0 2 0 0 0 0 0 1
Neighs:        11239.5 ave       11462 max       11016 min
Histogram: 1 1 0 0 0 0 0 0 1 1

Total # of neighbors = 44958
Ave neighs/atom = 4.6948622
Ave special neighs/atom = 11.515455
Neighbor list builds = 138
Dangerous builds = 0
Total wall time: 0:00:26
