LAMMPS (2 Sep 2026)
  using 1 OpenMP thread(s) per MPI task
# Load then unload four cantilevers with different plastic yield strains
#   model from DOI: 10.1016/j.powtec.2024.120563

units           lj
dimension       3
boundary        p s s
atom_style      bond
special_bonds   lj 0.0 1.0 1.0 coul 0.0 1.0 1.0
newton          on off
comm_modify     vel yes cutoff 2.6
lattice         fcc 1.41
Lattice spacing in x,y,z = 1.4156209 1.4156209 1.4156209
region          box block 0 20 -1 41 -5 5 units box
create_box      4 box bond/types 4 extra/bond/per/atom 20 extra/special/per/atom 50
Created orthogonal box = (0 -1 -5) to (20 41 5)
  1 by 1 by 1 MPI processor grid
mass            * 1.0

# Create initial disordered geometry somewhat near jamming

region          cantilever block 3.0 12.0 0 40 -2.5 2.5 units box
region          cantileverw block 2.0 13.0 -1 41 -3.5 3.5 units box
create_atoms    1 region cantilever
Created 2394 atoms
  using lattice units in orthogonal box = (0 -1.0042 -5.001) to (20 41.0042 5.001)
  create_atoms CPU = 0.001 seconds

velocity        all create 0.1 345910 loop geom

pair_style      bpm/spring
pair_coeff      * * 1.0 1.0 1.0

fix             1 all nve
fix             wtemp all wall/region cantileverw harmonic 1.0 1.0 1.0

thermo_style    custom step ke pe pxx pyy pzz
thermo          100

timestep        0.1
run             20000
Generated 0 of 6 mixed pair_coeff terms from geometric mixing rule
Neighbor list info ...
  update: every = 1 steps, delay = 0 steps, check = yes
  max neighbors/atom: 2000, page size: 100000
  master list distance cutoff = 1.3
  ghost atom cutoff = 2.6
  binsize = 0.65, bins = 31 65 16
  1 neighbor lists, perpetual/occasional/extra = 1 0 0
  (1) pair bpm/spring, perpetual
      attributes: half, newton on
      pair build: half/bin/newton
      stencil: half/bin/3d
      bin: standard
Per MPI rank memory allocation (min/avg/max) = 9.752 | 9.752 | 9.752 Mbytes
   Step         KinEng         PotEng          Pxx            Pyy            Pzz      
         0   0.14993734     0              0.071433813    0.069488353    0.072168413  
       100   0.0066849431   0.0030619554   0.016386256    0.017082694    0.016330788  
       200   0.0020630191   0.00069799426  0.0073712582   0.0075517731   0.0067526409 
       300   0.00092050672  0.00026066738  0.0040938436   0.0044179534   0.0038127345 
       400   0.00050607187  0.00012109241  0.0024008351   0.002714033    0.0023958333 
       500   0.00032613289  6.6795021e-05  0.0017015194   0.001869299    0.0015946805 
       600   0.00023338256  4.114523e-05   0.0012593736   0.0013033705   0.0012002568 
       700   0.0001734909   2.7299143e-05  0.00098289298  0.0010205219   0.0009457571 
       800   0.00013577726  1.8642656e-05  0.00077341292  0.00078302955  0.00074901729
       900   0.00011027734  1.4699747e-05  0.00066919173  0.00070474687  0.00059769076
      1000   9.1379065e-05  1.1861704e-05  0.00056353591  0.00060124051  0.00050604084
      1100   7.8048954e-05  9.4072167e-06  0.00047518059  0.00052676237  0.00046541098
      1200   6.7056779e-05  8.0038073e-06  0.00042737921  0.00046209335  0.00042268224
      1300   5.8539075e-05  6.4374591e-06  0.00038065596  0.00039313694  0.00035409004
      1400   5.1797033e-05  5.304392e-06   0.00033520888  0.00034353236  0.00033022763
      1500   4.6959312e-05  4.2732267e-06  0.00028485165  0.00032734584  0.00026050385
      1600   4.2188551e-05  4.0455844e-06  0.00027950846  0.00029606667  0.00023524044
      1700   3.8363844e-05  3.5714846e-06  0.00024416158  0.00026848094  0.00025676727
      1800   3.522454e-05   3.1888798e-06  0.00022364595  0.0002556837   0.00022309846
      1900   3.2265014e-05  2.9243263e-06  0.00021849993  0.00023021926  0.00020129013
      2000   3.0295718e-05  2.404557e-06   0.00019893656  0.00021274941  0.00018074106
      2100   2.7855262e-05  2.542525e-06   0.00019631794  0.00021603968  0.00018869136
      2200   2.6123604e-05  2.2683327e-06  0.0001746732   0.00020420363  0.00016938085
      2300   2.4884477e-05  1.6527572e-06  0.00015207948  0.00016117719  0.0001383898 
      2400   2.3387822e-05  1.6366974e-06  0.00013041995  0.00016347527  0.00014534107
      2500   2.2163295e-05  1.4407933e-06  0.00013303368  0.00016202046  0.00012098005
      2600   2.0621813e-05  1.5404811e-06  0.00015300537  0.00014652177  0.0001421904 
      2700   1.9838854e-05  1.1575235e-06  0.00012626282  0.00012734893  0.0001124363 
      2800   1.8652558e-05  1.2986243e-06  0.00012824408  0.0001315628   0.00012521519
      2900   1.7782455e-05  1.2037146e-06  0.00012559103  0.00012764274  0.00011188589
      3000   1.7033057e-05  1.0925256e-06  0.00011343843  0.00012633423  0.00010787696
      3100   1.6258866e-05  9.9977791e-07  0.00011199123  0.00011355451  0.00010752661
      3200   1.5656688e-05  8.6037421e-07  9.8308074e-05  9.8816286e-05  9.1063159e-05
      3300   1.4756147e-05  1.053887e-06   0.00011173693  0.00010979352  0.00010088884
      3400   1.4248303e-05  9.7237469e-07  0.00011203126  0.00010433447  0.00011166284
      3500   1.3745038e-05  8.9031297e-07  0.00011142086  9.7157383e-05  0.00010050185
      3600   1.3208779e-05  8.8933612e-07  0.00010229538  0.00010528453  8.3979503e-05
      3700   1.2828756e-05  6.7347327e-07  8.8710399e-05  8.638836e-05   7.8285907e-05
      3800   1.238563e-05   6.7487796e-07  8.2400487e-05  8.6261422e-05  8.2295215e-05
      3900   1.1948866e-05  6.3537115e-07  8.3550746e-05  7.7916862e-05  7.9660984e-05
      4000   1.1508055e-05  6.6249459e-07  8.3559772e-05  8.2892707e-05  8.2479022e-05
      4100   1.1118585e-05  6.1815349e-07  8.0352347e-05  8.5248537e-05  7.2739922e-05
      4200   1.0750562e-05  6.0466659e-07  7.5887251e-05  8.4969306e-05  6.4306047e-05
      4300   1.0484782e-05  5.2151178e-07  6.7463436e-05  7.2636956e-05  6.4893541e-05
      4400   1.0224561e-05  4.378252e-07   6.8142351e-05  6.0244654e-05  6.2186105e-05
      4500   9.8839882e-06  4.8817189e-07  6.4875258e-05  6.5042088e-05  6.8165314e-05
      4600   9.5883603e-06  4.6063051e-07  6.2539237e-05  7.0938874e-05  6.1635806e-05
      4700   9.3166032e-06  4.6234043e-07  6.8385284e-05  6.4026612e-05  6.2373814e-05
      4800   9.0306556e-06  4.862076e-07   6.5813585e-05  6.5879289e-05  6.5834929e-05
      4900   8.8439716e-06  4.1335284e-07  5.5849411e-05  6.4935522e-05  6.1973447e-05
      5000   8.6236104e-06  3.8491332e-07  5.6883914e-05  5.8731721e-05  5.6608164e-05
      5100   8.3663918e-06  4.1953549e-07  5.8670228e-05  6.0614937e-05  6.0200786e-05
      5200   8.1299227e-06  4.1157716e-07  5.7454279e-05  5.8954063e-05  5.7725115e-05
      5300   7.9746701e-06  3.6259328e-07  5.6052909e-05  6.2478183e-05  5.1160473e-05
      5400   7.780174e-06   3.4666579e-07  5.1602204e-05  5.4919156e-05  5.2551647e-05
      5500   7.6304803e-06  3.3765194e-07  5.4757611e-05  5.2969014e-05  4.7531243e-05
      5600   7.469637e-06   3.0173984e-07  5.1355764e-05  5.11698e-05    4.792001e-05 
      5700   7.2976398e-06  2.9470923e-07  4.9210426e-05  4.2829531e-05  5.0908182e-05
      5800   7.1261742e-06  2.8829861e-07  4.5138539e-05  5.007698e-05   4.8417122e-05
      5900   7.0177443e-06  2.5599007e-07  3.9075472e-05  4.5470399e-05  4.1976707e-05
      6000   6.7987651e-06  3.1004875e-07  4.1405172e-05  5.7249076e-05  4.6242656e-05
      6100   6.6683084e-06  2.9984928e-07  4.6357173e-05  5.4820383e-05  4.6891044e-05
      6200   6.4947132e-06  3.3228594e-07  4.9796797e-05  5.2353998e-05  4.9361922e-05
      6300   6.4002803e-06  2.6699499e-07  4.0925272e-05  5.0049923e-05  4.1680775e-05
      6400   6.2727214e-06  2.7938604e-07  4.6507937e-05  4.9676915e-05  4.4422508e-05
      6500   6.1686589e-06  2.5653457e-07  4.1901343e-05  4.1251481e-05  4.1006517e-05
      6600   6.062061e-06   2.5278274e-07  4.1475561e-05  4.3099788e-05  4.0442311e-05
      6700   5.9904955e-06  1.9256941e-07  3.7774251e-05  3.9486151e-05  3.7535398e-05
      6800   5.8199537e-06  2.4667791e-07  3.9328958e-05  4.5797802e-05  3.7809435e-05
      6900   5.7100054e-06  2.3895457e-07  3.8367585e-05  4.2536721e-05  3.7801374e-05
      7000   5.6468566e-06  1.9608659e-07  3.5770902e-05  3.331395e-05   3.7087711e-05
      7100   5.4965535e-06  2.163628e-07   3.8183643e-05  3.9599593e-05  3.8175402e-05
      7200   5.4478245e-06  1.90486e-07    3.7098889e-05  3.2088305e-05  3.1891202e-05
      7300   5.3987611e-06  1.5354822e-07  3.4049428e-05  3.3108958e-05  3.0209099e-05
      7400   5.2510385e-06  2.1638253e-07  4.1473854e-05  3.6856702e-05  3.7173782e-05
      7500   5.12621e-06    2.3542928e-07  4.2952911e-05  4.0658244e-05  4.3866948e-05
      7600   5.1053512e-06  1.9518188e-07  3.0750398e-05  3.8628116e-05  3.6558569e-05
      7700   5.0458419e-06  1.6122497e-07  2.9791257e-05  3.4230329e-05  2.7267099e-05
      7800   4.9960982e-06  1.5261277e-07  2.9596041e-05  3.4888795e-05  2.6824927e-05
      7900   4.8663912e-06  1.7823624e-07  3.1484668e-05  3.8818464e-05  3.5402454e-05
      8000   4.7932779e-06  1.8703876e-07  3.1493653e-05  3.9740608e-05  3.6857867e-05
      8100   4.7544671e-06  1.6174896e-07  3.2375355e-05  3.221867e-05   2.8020804e-05
      8200   4.6581722e-06  1.7336897e-07  3.3999615e-05  3.6218616e-05  3.1507766e-05
      8300   4.6017863e-06  1.5952724e-07  2.9150086e-05  3.1413458e-05  3.3002339e-05
      8400   4.5524212e-06  1.5577872e-07  2.9765659e-05  3.493077e-05   2.7497279e-05
      8500   4.5027717e-06  1.4215107e-07  2.8329129e-05  3.0879084e-05  2.6895213e-05
      8600   4.4322939e-06  1.4375287e-07  2.510317e-05   3.2728177e-05  2.7912021e-05
      8700   4.3855068e-06  1.3408464e-07  2.6093061e-05  2.9950859e-05  3.1825201e-05
      8800   4.3359134e-06  1.2555582e-07  2.9119746e-05  2.6745259e-05  2.5872566e-05
      8900   4.2753848e-06  1.3194388e-07  2.8431317e-05  2.969983e-05   3.0329884e-05
      9000   4.2173768e-06  1.3371473e-07  2.3795744e-05  2.9775111e-05  3.0502102e-05
      9100   4.1358656e-06  1.4783172e-07  2.7231238e-05  3.167652e-05   2.8382817e-05
      9200   4.1230895e-06  1.2563839e-07  2.7382232e-05  3.077934e-05   2.3836331e-05
      9300   4.0683626e-06  1.243162e-07   2.3173923e-05  2.7133061e-05  2.8369484e-05
      9400   3.9904044e-06  1.465185e-07   2.7659231e-05  3.11557e-05    2.7541709e-05
      9500   3.9739394e-06  1.1363407e-07  2.6562397e-05  2.6057968e-05  2.2883438e-05
      9600   3.9067509e-06  1.3226829e-07  2.6331116e-05  2.9592143e-05  2.5470234e-05
      9700   3.8794503e-06  1.1830421e-07  2.2267977e-05  2.710507e-05   2.4413837e-05
      9800   3.8530868e-06  1.0187419e-07  2.2792464e-05  2.7359164e-05  1.702153e-05 
      9900   3.801816e-06   9.957942e-08   2.3687359e-05  2.3243315e-05  2.1178264e-05
     10000   3.7446122e-06  1.0943831e-07  2.6745055e-05  2.4320857e-05  2.4885532e-05
     10100   3.6845972e-06  1.2129373e-07  2.7993326e-05  2.4338036e-05  2.3895297e-05
     10200   3.6475846e-06  1.2405433e-07  2.6149683e-05  2.8607008e-05  2.7109613e-05
     10300   3.6272882e-06  1.0464295e-07  1.9818922e-05  2.3589543e-05  2.4619396e-05
     10400   3.5866165e-06  1.0477271e-07  2.2796332e-05  2.6746422e-05  2.8369074e-05
     10500   3.5409121e-06  1.0517137e-07  2.3386609e-05  2.3504965e-05  2.0937144e-05
     10600   3.5004733e-06  1.1274233e-07  2.3722022e-05  2.7141949e-05  2.4914456e-05
     10700   3.4733667e-06  1.0568814e-07  2.0867187e-05  2.7266013e-05  2.4636827e-05
     10800   3.436772e-06   9.9547549e-08  2.1280337e-05  2.4035072e-05  2.2876551e-05
     10900   3.4066521e-06  9.5900809e-08  2.1123168e-05  2.3255991e-05  2.2302139e-05
     11000   3.3551697e-06  1.0191302e-07  2.2937611e-05  2.5018728e-05  2.3180558e-05
     11100   3.3310525e-06  9.0259605e-08  2.0691215e-05  2.1431935e-05  2.303951e-05 
     11200   3.3054874e-06  9.1152581e-08  2.2181528e-05  2.2386741e-05  1.6918113e-05
     11300   3.2712495e-06  8.7275134e-08  1.9186666e-05  2.3438403e-05  2.2896154e-05
     11400   3.2520656e-06  7.5829742e-08  1.8163713e-05  2.2626627e-05  1.639424e-05 
     11500   3.2053273e-06  8.4183371e-08  2.1751638e-05  1.8290057e-05  1.9574872e-05
     11600   3.1665271e-06  8.5958077e-08  1.8149948e-05  2.0987401e-05  2.1585659e-05
     11700   3.1590568e-06  7.9129872e-08  1.9012742e-05  1.9512375e-05  1.7725905e-05
     11800   3.103151e-06   9.8494317e-08  2.2891066e-05  2.3016767e-05  2.4306257e-05
     11900   3.1057268e-06  7.1998329e-08  2.0201605e-05  1.8155679e-05  1.8046362e-05
     12000   3.0636644e-06  8.4047465e-08  1.8701139e-05  2.2941959e-05  1.9740056e-05
     12100   3.0469087e-06  7.1763302e-08  2.2744932e-05  1.7152366e-05  1.5484008e-05
     12200   3.0062338e-06  8.7015729e-08  2.0371075e-05  2.2155478e-05  2.0212066e-05
     12300   2.9661378e-06  9.693126e-08   2.4369357e-05  2.4077429e-05  2.1663336e-05
     12400   2.960055e-06   7.2787789e-08  1.7019067e-05  2.0117273e-05  1.8254964e-05
     12500   2.9364731e-06  7.7243508e-08  1.8136713e-05  1.9658858e-05  2.0182758e-05
     12600   2.9163768e-06  7.0684095e-08  1.8642377e-05  1.6885209e-05  1.7918368e-05
     12700   2.8775126e-06  8.6764957e-08  1.9786029e-05  2.212525e-05   1.732329e-05 
     12800   2.8677687e-06  7.2159387e-08  1.7848863e-05  2.3465666e-05  1.5185961e-05
     12900   2.8631651e-06  5.3409774e-08  1.7124811e-05  1.5701629e-05  1.4532898e-05
     13000   2.8114112e-06  7.380988e-08   1.8491556e-05  1.9384988e-05  1.8637546e-05
     13100   2.8146605e-06  5.0769093e-08  1.6008476e-05  1.5436419e-05  1.6047429e-05
     13200   2.7680453e-06  7.3236961e-08  1.7081415e-05  1.8595336e-05  1.8824752e-05
     13300   2.7476511e-06  7.8045543e-08  1.8329906e-05  2.1839363e-05  1.8283938e-05
     13400   2.735558e-06   6.0272976e-08  1.5343597e-05  1.6786331e-05  1.4601378e-05
     13500   2.7005655e-06  7.3402702e-08  2.060903e-05   2.0489813e-05  1.6819946e-05
     13600   2.6930978e-06  6.1460716e-08  1.6987134e-05  1.8103415e-05  1.780119e-05 
     13700   2.6763611e-06  5.1314497e-08  1.6850334e-05  1.3266599e-05  1.2448773e-05
     13800   2.6540857e-06  5.5669154e-08  1.5302116e-05  1.7863329e-05  1.4051253e-05
     13900   2.6175533e-06  6.760718e-08   1.5966762e-05  1.6077166e-05  1.6178473e-05
     14000   2.6034916e-06  5.9077449e-08  1.3863773e-05  1.8715347e-05  1.5000021e-05
     14100   2.5637738e-06  7.7670036e-08  1.8649412e-05  2.0521778e-05  1.7195462e-05
     14200   2.5651785e-06  5.5947665e-08  1.5960232e-05  1.8041956e-05  1.480165e-05 
     14300   2.5419537e-06  5.9911522e-08  1.6356914e-05  1.5809461e-05  1.4983675e-05
     14400   2.5211283e-06  6.1355859e-08  1.4972147e-05  1.7306033e-05  1.3735634e-05
     14500   2.5067574e-06  5.4244426e-08  1.494263e-05   1.7468469e-05  1.2724479e-05
     14600   2.4712983e-06  6.85205e-08    1.4158316e-05  1.8886532e-05  1.7772586e-05
     14700   2.4669728e-06  6.0158823e-08  1.3170606e-05  1.7360013e-05  1.5293472e-05
     14800   2.4385615e-06  6.5391643e-08  1.7364897e-05  1.7101127e-05  1.594114e-05 
     14900   2.4195644e-06  6.1794243e-08  1.7776287e-05  1.3663797e-05  1.4211048e-05
     15000   2.416074e-06   4.6955965e-08  1.4773541e-05  1.6003552e-05  1.129534e-05 
     15100   2.3792374e-06  6.5433708e-08  1.854051e-05   1.5202896e-05  1.3972654e-05
     15200   2.3844431e-06  5.1451508e-08  1.4177079e-05  1.4318353e-05  1.6826949e-05
     15300   2.3368402e-06  7.051892e-08   1.6162757e-05  1.8957755e-05  1.5409931e-05
     15400   2.3424125e-06  5.1987176e-08  1.4091117e-05  1.4043332e-05  1.6764856e-05
     15500   2.3176769e-06  5.7431239e-08  1.5373509e-05  1.5246378e-05  1.4647911e-05
     15600   2.3045639e-06  5.0102811e-08  1.3796293e-05  1.3646714e-05  1.4404109e-05
     15700   2.2975032e-06  4.4689436e-08  1.4705639e-05  1.4066483e-05  1.1936214e-05
     15800   2.2763978e-06  5.2123293e-08  1.3091259e-05  1.4725411e-05  1.6592604e-05
     15900   2.2635764e-06  4.8003748e-08  1.4423436e-05  1.5705887e-05  1.081331e-05 
     16000   2.2440595e-06  5.1274587e-08  1.602761e-05   1.3790664e-05  1.4490419e-05
     16100   2.2297268e-06  4.6655988e-08  1.2316229e-05  1.4146786e-05  1.2686699e-05
     16200   2.2250613e-06  4.006108e-08   1.1860323e-05  1.3789066e-05  1.2240122e-05
     16300   2.195398e-06   4.3926429e-08  1.3381682e-05  1.3279243e-05  1.4093098e-05
     16400   2.1756425e-06  5.7079698e-08  1.3199214e-05  1.7910036e-05  1.4541522e-05
     16500   2.1843521e-06  3.2429741e-08  1.1181216e-05  1.139314e-05   1.0219017e-05
     16600   2.1580095e-06  3.9275663e-08  1.2779045e-05  1.2550989e-05  1.2350157e-05
     16700   2.149825e-06   4.2274673e-08  1.2516488e-05  1.2618914e-05  1.1716038e-05
     16800   2.1320036e-06  4.672985e-08   1.5402803e-05  1.3141879e-05  1.0715844e-05
     16900   2.1141575e-06  5.3142298e-08  1.5755235e-05  1.3374909e-05  1.3715448e-05
     17000   2.1041303e-06  5.0641907e-08  1.2504582e-05  1.5602419e-05  1.1549761e-05
     17100   2.0966335e-06  4.3390539e-08  1.377271e-05   1.379733e-05   1.1920796e-05
     17200   2.0881366e-06  4.1733088e-08  1.2399893e-05  1.4833177e-05  1.1502998e-05
     17300   2.0661696e-06  4.8720464e-08  1.1849074e-05  1.5861078e-05  1.3209427e-05
     17400   2.0606528e-06  4.1993849e-08  1.3246965e-05  1.2588944e-05  1.2610429e-05
     17500   2.0333823e-06  5.0961759e-08  1.6703164e-05  1.4990222e-05  1.1743514e-05
     17600   2.0231669e-06  4.8743743e-08  1.4322023e-05  1.3907491e-05  1.2787554e-05
     17700   2.0198831e-06  4.3447713e-08  1.2725638e-05  1.5427668e-05  1.0238979e-05
     17800   2.0002182e-06  5.3770842e-08  1.5502576e-05  1.5609048e-05  1.3562228e-05
     17900   2.0009419e-06  3.9104809e-08  1.0004133e-05  1.1573411e-05  1.2555212e-05
     18000   1.9790533e-06  4.0088452e-08  1.1594894e-05  1.4232744e-05  1.1900178e-05
     18100   1.9793635e-06  3.4188143e-08  1.2615993e-05  1.0259145e-05  1.1448795e-05
     18200   1.962441e-06   4.2008472e-08  1.0722696e-05  1.3447002e-05  1.1802112e-05
     18300   1.9536699e-06  3.5621227e-08  1.0553675e-05  1.2753328e-05  1.0088822e-05
     18400   1.9366342e-06  4.149741e-08   1.1679077e-05  1.4027526e-05  1.0802633e-05
     18500   1.9143401e-06  4.7052636e-08  1.1771636e-05  1.5354423e-05  1.3994278e-05
     18600   1.9028434e-06  4.7281328e-08  1.4417678e-05  1.3753516e-05  1.4630357e-05
     18700   1.9011071e-06  4.2358458e-08  1.2526775e-05  1.2054168e-05  1.4152637e-05
     18800   1.8867235e-06  4.2017211e-08  1.3500344e-05  1.3312411e-05  1.0033068e-05
     18900   1.8766013e-06  4.4748737e-08  1.378995e-05   1.3420423e-05  1.3020496e-05
     19000   1.8605806e-06  4.9340232e-08  1.271188e-05   1.507944e-05   1.1931929e-05
     19100   1.8540346e-06  4.0710776e-08  1.1307536e-05  1.3186986e-05  1.2175547e-05
     19200   1.8400079e-06  4.6249165e-08  1.345373e-05   1.3414614e-05  1.1845399e-05
     19300   1.8331039e-06  4.1565487e-08  1.3354685e-05  1.0137533e-05  1.3560329e-05
     19400   1.8260515e-06  3.5798053e-08  1.0834464e-05  1.2456e-05     9.4963126e-06
     19500   1.8152749e-06  3.7147148e-08  9.6844213e-06  1.2791145e-05  1.3610552e-05
     19600   1.7986725e-06  4.1370329e-08  1.1519283e-05  1.2557701e-05  1.3349361e-05
     19700   1.7978896e-06  3.7421848e-08  1.1399551e-05  1.2900435e-05  1.1564221e-05
     19800   1.7802679e-06  4.1213157e-08  1.1417461e-05  1.2290937e-05  1.4941205e-05
     19900   1.7769887e-06  3.4791239e-08  1.2429711e-05  1.0865326e-05  8.3951447e-06
     20000   1.767241e-06   3.4566386e-08  1.0759794e-05  1.1597633e-05  1.1048142e-05
Loop time of 1.52939 on 1 procs for 20000 steps with 2394 atoms

Performance: 112986111.342 tau/day, 13077.096 timesteps/s, 31.307 Matom-step/s
99.7% CPU use with 1 MPI tasks x 1 OpenMP threads

MPI task timing breakdown:
Section |  min time  |  avg time  |  max time  |%varavg| %total
---------------------------------------------------------------
Pair    | 0.46386    | 0.46386    | 0.46386    |   0.0 | 30.33
Bond    | 0.00049364 | 0.00049364 | 0.00049364 |   0.0 |  0.03
Neigh   | 0.111      | 0.111      | 0.111      |   0.0 |  7.26
Comm    | 0.0043776  | 0.0043776  | 0.0043776  |   0.0 |  0.29
Output  | 0.0033111  | 0.0033111  | 0.0033111  |   0.0 |  0.22
Modify  | 0.89675    | 0.89675    | 0.89675    |   0.0 | 58.63
Other   |            | 0.04959    |            |       |  3.24

Nlocal:           2394 ave        2394 max        2394 min
Histogram: 1 0 0 0 0 0 0 0 0 0
Nghost:              0 ave           0 max           0 min
Histogram: 1 0 0 0 0 0 0 0 0 0
Neighs:          11195 ave       11195 max       11195 min
Histogram: 1 0 0 0 0 0 0 0 0 0

Total # of neighbors = 11195
Ave neighs/atom = 4.676274
Ave special neighs/atom = 0
Neighbor list builds = 189
Dangerous builds = 0
unfix           wtemp

# Replicate cylinder and add bonds

replicate       4 1 1
Replication is creating a 4x1x1 = 4 times larger system...
  orthogonal box = (0 -0.0052847474 -2.5018511) to (80 40.003242 2.5027641)
  1 by 1 by 1 MPI processor grid
  9576 atoms
Finding 1-2 1-3 1-4 neighbors ...
  special bond factors lj:    0        1        1       
  special bond factors coul:  0        1        1       
     0 = max # of 1-2 neighbors
   101 = max # of special neighbors
  special bonds CPU = 0.000 seconds
  replicate CPU = 0.002 seconds

region          r1 block 0.0  20.0 EDGE EDGE EDGE EDGE side in units box
region          r2 block 20.0 40.0 EDGE EDGE EDGE EDGE side in units box
region          r3 block 40.0 60.0 EDGE EDGE EDGE EDGE side in units box
region          r4 block 60.0 80.0 EDGE EDGE EDGE EDGE side in units box

group           c1 region r1
2394 atoms in group c1
group           c2 region r2
2394 atoms in group c2
group           c3 region r3
2394 atoms in group c3
group           c4 region r4
2394 atoms in group c4

set             group c2 type 2
Setting atom values ...
  2394 settings made for type
set             group c3 type 3
Setting atom values ...
  2394 settings made for type
set             group c4 type 4
Setting atom values ...
  2394 settings made for type

velocity        all set 0.0 0.0 0.0
neighbor        1.0 bin

create_bonds    many c1 c1 1 0.0 1.5
Generated 0 of 6 mixed pair_coeff terms from geometric mixing rule
Neighbor list info ...
  update: every = 1 steps, delay = 0 steps, check = yes
  max neighbors/atom: 2000, page size: 100000
  master list distance cutoff = 2
  ghost atom cutoff = 2.6
  binsize = 1, bins = 80 41 6
  2 neighbor lists, perpetual/occasional/extra = 1 1 0
  (1) command create_bonds, occasional
      attributes: full, newton on
      pair build: full/bin
      stencil: full/bin/3d
      bin: standard
  (2) pair bpm/spring, perpetual
      attributes: half, newton on
      pair build: half/bin/newton
      stencil: half/bin/3d
      bin: standard
Added 13756 bonds, new total = 13756
Finding 1-2 1-3 1-4 neighbors ...
  special bond factors lj:    0        1        1       
  special bond factors coul:  0        1        1       
    17 = max # of 1-2 neighbors
   101 = max # of special neighbors
  special bonds CPU = 0.001 seconds
create_bonds    many c2 c2 2 0.0 1.5
Generated 0 of 6 mixed pair_coeff terms from geometric mixing rule
WARNING: Bonds are defined but no bond style is set (src/force.cpp:165)
WARNING: Likewise 1-2 special neighbor interactions != 1.0 (src/force.cpp:167)
Neighbor list info ...
  update: every = 1 steps, delay = 0 steps, check = yes
  max neighbors/atom: 2000, page size: 100000
  master list distance cutoff = 2
  ghost atom cutoff = 2.6
  binsize = 1, bins = 80 41 6
  2 neighbor lists, perpetual/occasional/extra = 1 1 0
  (1) command create_bonds, occasional
      attributes: full, newton on
      pair build: full/bin
      stencil: full/bin/3d
      bin: standard
  (2) pair bpm/spring, perpetual
      attributes: half, newton on
      pair build: half/bin/newton
      stencil: half/bin/3d
      bin: standard
Added 13756 bonds, new total = 27512
Finding 1-2 1-3 1-4 neighbors ...
  special bond factors lj:    0        1        1       
  special bond factors coul:  0        1        1       
    17 = max # of 1-2 neighbors
   101 = max # of special neighbors
  special bonds CPU = 0.001 seconds
create_bonds    many c3 c3 3 0.0 1.5
Generated 0 of 6 mixed pair_coeff terms from geometric mixing rule
WARNING: Bonds are defined but no bond style is set (src/force.cpp:165)
WARNING: Likewise 1-2 special neighbor interactions != 1.0 (src/force.cpp:167)
Neighbor list info ...
  update: every = 1 steps, delay = 0 steps, check = yes
  max neighbors/atom: 2000, page size: 100000
  master list distance cutoff = 2
  ghost atom cutoff = 2.6
  binsize = 1, bins = 80 41 6
  2 neighbor lists, perpetual/occasional/extra = 1 1 0
  (1) command create_bonds, occasional
      attributes: full, newton on
      pair build: full/bin
      stencil: full/bin/3d
      bin: standard
  (2) pair bpm/spring, perpetual
      attributes: half, newton on
      pair build: half/bin/newton
      stencil: half/bin/3d
      bin: standard
Added 13756 bonds, new total = 41268
Finding 1-2 1-3 1-4 neighbors ...
  special bond factors lj:    0        1        1       
  special bond factors coul:  0        1        1       
    17 = max # of 1-2 neighbors
   101 = max # of special neighbors
  special bonds CPU = 0.002 seconds
create_bonds    many c4 c4 4 0.0 1.5
Generated 0 of 6 mixed pair_coeff terms from geometric mixing rule
WARNING: Bonds are defined but no bond style is set (src/force.cpp:165)
WARNING: Likewise 1-2 special neighbor interactions != 1.0 (src/force.cpp:167)
Neighbor list info ...
  update: every = 1 steps, delay = 0 steps, check = yes
  max neighbors/atom: 2000, page size: 100000
  master list distance cutoff = 2
  ghost atom cutoff = 2.6
  binsize = 1, bins = 80 41 6
  2 neighbor lists, perpetual/occasional/extra = 1 1 0
  (1) command create_bonds, occasional
      attributes: full, newton on
      pair build: full/bin
      stencil: full/bin/3d
      bin: standard
  (2) pair bpm/spring, perpetual
      attributes: half, newton on
      pair build: half/bin/newton
      stencil: half/bin/3d
      bin: standard
Added 13756 bonds, new total = 55024
Finding 1-2 1-3 1-4 neighbors ...
  special bond factors lj:    0        1        1       
  special bond factors coul:  0        1        1       
    17 = max # of 1-2 neighbors
   101 = max # of special neighbors
  special bonds CPU = 0.004 seconds

neighbor        0.3 bin
special_bonds   lj 0.0 1.0 1.0 coul 1.0 1.0 1.0

bond_style      bpm/spring/plastic break no smooth no
bond_coeff      1 1.0 0 1.0 1.0
bond_coeff      2 1.0 0 1.0 0.022
bond_coeff      3 1.0 0 1.0 0.0185
bond_coeff      4 1.0 0 1.0 0.017

# apply load

region          anchor block EDGE EDGE EDGE 2.0 EDGE EDGE units box
region          load block EDGE EDGE 38.0 EDGE EDGE EDGE units box
group           anchor region anchor
552 atoms in group anchor
group           load region load
576 atoms in group load

variable        fload equal ramp(0.0,-0.0005)
fix             2 anchor setforce 0.0 0.0 0.0
fix             3 load addforce 0.0 0.0 v_fload
fix             4 all viscous 0.0016

compute         zmin1 c1 reduce min z
compute         zmin2 c2 reduce min z
compute         zmin3 c3 reduce min z
compute         zmin4 c4 reduce min z

thermo_style    custom step ke c_zmin1 c_zmin2 c_zmin3 c_zmin4
#dump            1 all custom 1000 atomDump id type x y z

run             30000

CITE-CITE-CITE-CITE-CITE-CITE-CITE-CITE-CITE-CITE-CITE-CITE-CITE

Your simulation uses code contributions which should be cited:

- BPM bond style: https://doi.org/10.1039/D3SM01373A

@Article{Clemmer2024,
 author =  {Clemmer, Joel T. and Monti, Joseph M. and Lechman, Jeremy B.},
 title =   {A soft departure from jamming: the compaction of deformable
            granular matter under high pressures},
 journal = {Soft Matter},
 year =    2024,
 volume =  20,
 number =  8,
 pages =   {1702--1718}
}

- BPM/spring/plastic bond style: https://doi.org/10.1016/j.powtec.2024.120563

@Article{Clemmer2025,
 author =  {Clemmer, Joel T. and Lechman, Jeremy B.},
 title =   {Onset and impact of plastic deformation in granular compaction},
 journal = {Powder Technology},
 year =    2025,
 volume =  452,
 number =  28,
 pages =   {120563}
}

CITE-CITE-CITE-CITE-CITE-CITE-CITE-CITE-CITE-CITE-CITE-CITE-CITE

Generated 0 of 6 mixed pair_coeff terms from geometric mixing rule
Neighbor list info ...
  update: every = 1 steps, delay = 0 steps, check = yes
  max neighbors/atom: 2000, page size: 100000
  master list distance cutoff = 1.3
  ghost atom cutoff = 2.6
  binsize = 0.65, bins = 124 62 8
  1 neighbor lists, perpetual/occasional/extra = 1 0 0
  (1) pair bpm/spring, perpetual
      attributes: half, newton on
      pair build: half/bin/newton
      stencil: half/bin/3d
      bin: standard
Per MPI rank memory allocation (min/avg/max) = 20.02 | 20.02 | 20.02 Mbytes
   Step         KinEng        c_zmin1        c_zmin2        c_zmin3        c_zmin4    
     20000   0             -2.5011095     -2.5011095     -2.5011095     -2.5011095    
     20100   1.186618e-12  -2.5011095     -2.5011095     -2.5011095     -2.5011095    
     20200   1.5891665e-11 -2.5011095     -2.5011095     -2.5011095     -2.5011095    
     20300   7.0157558e-11 -2.5011093     -2.5011093     -2.5011093     -2.5011093    
     20400   1.9867682e-10 -2.5011035     -2.5011035     -2.5011035     -2.5011035    
     20500   4.4220918e-10 -2.5010743     -2.5010743     -2.5010743     -2.5010743    
     20600   8.4621943e-10 -2.501926      -2.501926      -2.501926      -2.501926     
     20700   1.460592e-09  -2.5032793     -2.5032793     -2.5032793     -2.5032793    
     20800   2.3361884e-09 -2.5049688     -2.5049688     -2.5049688     -2.5049688    
     20900   3.5186371e-09 -2.507017      -2.507017      -2.507017      -2.507017     
     21000   5.0507092e-09 -2.5094445     -2.5094445     -2.5094445     -2.5094445    
     21100   6.9792962e-09 -2.5122711     -2.5122711     -2.5122711     -2.5122711    
     21200   9.3598212e-09 -2.5155194     -2.5155194     -2.5155194     -2.5155194    
     21300   1.2257217e-08 -2.5192108     -2.5192108     -2.5192108     -2.5192108    
     21400   1.5744305e-08 -2.5233525     -2.5233525     -2.5233525     -2.5233525    
     21500   1.9900952e-08 -2.5279342     -2.5279342     -2.5279342     -2.5279342    
     21600   2.4815583e-08 -2.5329396     -2.5329396     -2.5329396     -2.5329396    
     21700   3.0583312e-08 -2.5383585     -2.5383585     -2.5383585     -2.5383585    
     21800   3.7299179e-08 -2.5441928     -2.5441928     -2.5441928     -2.5441928    
     21900   4.5050745e-08 -2.550456      -2.550456      -2.550456      -2.550456     
     22000   5.3913443e-08 -2.5571716     -2.5571716     -2.5571716     -2.5571716    
     22100   6.3950123e-08 -2.5643691     -2.5643691     -2.5643691     -2.5643691    
     22200   7.5212834e-08 -2.572082      -2.572082      -2.572082      -2.572082     
     22300   8.7743336e-08 -2.5803456     -2.5803456     -2.5803456     -2.5803456    
     22400   1.0157318e-07 -2.589195      -2.589195      -2.589195      -2.589195     
     22500   1.1672578e-07 -2.5986613     -2.5986613     -2.5986613     -2.5986613    
     22600   1.3322004e-07 -2.6087689     -2.6087689     -2.6087689     -2.6087689    
     22700   1.5107296e-07 -2.6195369     -2.6195369     -2.6195369     -2.6195369    
     22800   1.7029906e-07 -2.6309851     -2.6309851     -2.6309851     -2.6309851    
     22900   1.9090681e-07 -2.643137      -2.643137      -2.643137      -2.643137     
     23000   2.1289509e-07 -2.6560192     -2.6560192     -2.6560192     -2.6560192    
     23100   2.3625153e-07 -2.6696572     -2.6696572     -2.6696572     -2.6696572    
     23200   2.6095161e-07 -2.6840699     -2.6840699     -2.6840699     -2.6840699    
     23300   2.8695786e-07 -2.6992666     -2.6992666     -2.6992666     -2.6992666    
     23400   3.1421941e-07 -2.7152461     -2.7152461     -2.7152461     -2.7152461    
     23500   3.4267312e-07 -2.7319976     -2.7319976     -2.7319976     -2.7319976    
     23600   3.7224694e-07 -2.7495023     -2.7495023     -2.7495023     -2.7495023    
     23700   4.0286386e-07 -2.7677355     -2.7677355     -2.7677355     -2.7677355    
     23800   4.344447e-07  -2.7866692     -2.7866692     -2.7866692     -2.7866692    
     23900   4.6690911e-07 -2.8062761     -2.8062761     -2.8062761     -2.8062761    
     24000   5.0017593e-07 -2.8265325     -2.8265325     -2.8265325     -2.8265325    
     24100   5.3416313e-07 -2.8474192     -2.8474192     -2.8474192     -2.8474192    
     24200   5.6878746e-07 -2.8689204     -2.8689204     -2.8689204     -2.8689204    
     24300   6.03963e-07   -2.8910203     -2.8910203     -2.8910203     -2.8910203    
     24400   6.3959906e-07 -2.9137022     -2.9137022     -2.9137022     -2.9137022    
     24500   6.7559874e-07 -2.9369478     -2.9369478     -2.9369478     -2.9369478    
     24600   7.1185877e-07 -2.9607398     -2.9607398     -2.9607398     -2.9607398    
     24700   7.4827037e-07 -2.9850634     -2.9850634     -2.9850634     -2.9850634    
     24800   7.847205e-07  -3.009908      -3.009908      -3.009908      -3.009908     
     24900   8.2109292e-07 -3.0352676     -3.0352676     -3.0352676     -3.0352676    
     25000   8.5726966e-07 -3.0611413     -3.0611413     -3.0611413     -3.0611413    
     25100   8.9313303e-07 -3.0875315     -3.0875315     -3.0875315     -3.0875315    
     25200   9.285674e-07  -3.1144426     -3.1144426     -3.1144426     -3.1144426    
     25300   9.634603e-07  -3.141878      -3.141878      -3.141878      -3.141878     
     25400   9.9770243e-07 -3.1698375     -3.1698375     -3.1698375     -3.1698375    
     25500   1.0311873e-06 -3.1983149     -3.1983149     -3.1983149     -3.1983149    
     25600   1.0638108e-06 -3.2272978     -3.2272978     -3.2272978     -3.2272978    
     25700   1.0954713e-06 -3.2567687     -3.2567687     -3.2567687     -3.2567687    
     25800   1.1260694e-06 -3.2867068     -3.2867068     -3.2867068     -3.2867068    
     25900   1.1555076e-06 -3.317089      -3.317089      -3.317089      -3.317089     
     26000   1.1836908e-06 -3.3478909     -3.3478909     -3.3478909     -3.3478909    
     26100   1.2105277e-06 -3.3790864     -3.3790864     -3.3790864     -3.3790864    
     26200   1.2359326e-06 -3.4106474     -3.4106474     -3.4106474     -3.4106474    
     26300   1.2598271e-06 -3.4425435     -3.4425435     -3.4425435     -3.4425435    
     26400   1.2821418e-06 -3.474741      -3.474741      -3.474741      -3.474741     
     26500   1.3028172e-06 -3.5072039     -3.5072039     -3.5072039     -3.5072039    
     26600   1.3218041e-06 -3.5398942     -3.5398942     -3.5398942     -3.5398942    
     26700   1.3390636e-06 -3.5727738     -3.5727738     -3.5727738     -3.5727738    
     26800   1.3545665e-06 -3.6058062     -3.6058062     -3.6058062     -3.6058062    
     26900   1.3682916e-06 -3.6389587     -3.6389587     -3.6389587     -3.6389587    
     27000   1.3802244e-06 -3.6722036     -3.6722036     -3.6722036     -3.6722036    
     27100   1.3903557e-06 -3.7055184     -3.7055184     -3.7055184     -3.7055184    
     27200   1.3986809e-06 -3.7388848     -3.7388848     -3.7388848     -3.7388848    
     27300   1.4051999e-06 -3.772288      -3.772288      -3.772288      -3.772288     
     27400   1.4099175e-06 -3.8057148     -3.8057148     -3.8057148     -3.8057148    
     27500   1.4128436e-06 -3.8391533     -3.8391533     -3.8391533     -3.8391533    
     27600   1.413994e-06  -3.8725917     -3.8725917     -3.8725917     -3.8725917    
     27700   1.4133914e-06 -3.9060188     -3.9060188     -3.9060188     -3.9060188    
     27800   1.4110652e-06 -3.9394239     -3.9394239     -3.9394239     -3.9394239    
     27900   1.4070516e-06 -3.9727969     -3.9727969     -3.9727969     -3.9727969    
     28000   1.4013926e-06 -4.0061284     -4.0061284     -4.0061284     -4.0061284    
     28100   1.3941351e-06 -4.0394089     -4.0394089     -4.0394089     -4.0394089    
     28200   1.3853296e-06 -4.0726284     -4.0726284     -4.0726284     -4.0726284    
     28300   1.3750299e-06 -4.105775      -4.105775      -4.105775      -4.105775     
     28400   1.3632918e-06 -4.1388336     -4.1388336     -4.1388336     -4.1388336    
     28500   1.3501733e-06 -4.1717859     -4.1717859     -4.1717859     -4.1717859    
     28600   1.3357344e-06 -4.2046102     -4.2046102     -4.2046102     -4.2046102    
     28700   1.3200379e-06 -4.2372821     -4.2372821     -4.2372821     -4.2372821    
     28800   1.3031497e-06 -4.2697758     -4.2697758     -4.2697758     -4.2697758    
     28900   1.2851395e-06 -4.3020654     -4.3020654     -4.3020654     -4.3020654    
     29000   1.2660808e-06 -4.3341256     -4.3341256     -4.3341256     -4.3341256    
     29100   1.2460505e-06 -4.3659326     -4.3659326     -4.3659326     -4.3659326    
     29200   1.2251287e-06 -4.3974648     -4.3974648     -4.3974648     -4.3974648    
     29300   1.203398e-06  -4.4287022     -4.4287022     -4.4287022     -4.4287022    
     29400   1.180942e-06  -4.4596271     -4.4596271     -4.4596271     -4.4596271    
     29500   1.1578446e-06 -4.4902232     -4.4902232     -4.4902232     -4.4902232    
     29600   1.1341886e-06 -4.5204766     -4.5204766     -4.5204766     -4.5204766    
     29700   1.1100551e-06 -4.5503754     -4.5503754     -4.5503754     -4.5503754    
     29800   1.0855231e-06 -4.5799108     -4.5799108     -4.5799108     -4.5799108    
     29900   1.060669e-06  -4.6090771     -4.6090771     -4.6090771     -4.6090771    
     30000   1.0355663e-06 -4.6378721     -4.6378721     -4.6378721     -4.6378721    
     30100   1.0102861e-06 -4.6662966     -4.6662966     -4.6662966     -4.6662966    
     30200   9.8489703e-07 -4.6943539     -4.6943539     -4.6943539     -4.6943539    
     30300   9.5946527e-07 -4.7220485     -4.7220485     -4.7220485     -4.7220485    
     30400   9.3405464e-07 -4.7493858     -4.7493858     -4.7493858     -4.7493858    
     30500   9.0872634e-07 -4.7763705     -4.7763705     -4.7763705     -4.7763705    
     30600   8.8353871e-07 -4.8030064     -4.8030064     -4.8030064     -4.8030064    
     30700   8.585468e-07  -4.829296      -4.829296      -4.829296      -4.829296     
     30800   8.3380204e-07 -4.8552405     -4.8552405     -4.8552405     -4.8552405    
     30900   8.0935191e-07 -4.88084       -4.88084       -4.88084       -4.88084      
     31000   7.8523985e-07 -4.9060937     -4.9060937     -4.9060937     -4.9060937    
     31100   7.6150526e-07 -4.9310001     -4.9310001     -4.9310001     -4.9310001    
     31200   7.3818382e-07 -4.9555569     -4.9555569     -4.9555569     -4.9555569    
     31300   7.1530803e-07 -4.9797611     -4.9797611     -4.9797611     -4.9797611    
     31400   6.9290769e-07 -5.0036089     -5.0036089     -5.0036089     -5.0036089    
     31500   6.7101049e-07 -5.0270958     -5.0270958     -5.0270958     -5.0270958    
     31600   6.4964236e-07 -5.050217      -5.050217      -5.050217      -5.050217     
     31700   6.2882773e-07 -5.0729678     -5.0729678     -5.0729678     -5.0729678    
     31800   6.0858949e-07 -5.0953446     -5.0953446     -5.0953446     -5.0953446    
     31900   5.8894879e-07 -5.1173451     -5.1173451     -5.1173451     -5.1173451    
     32000   5.6992464e-07 -5.1389695     -5.1389695     -5.1389695     -5.1389695    
     32100   5.5153347e-07 -5.1602202     -5.1602202     -5.1602202     -5.1602202    
     32200   5.3378883e-07 -5.1811026     -5.1811026     -5.1811026     -5.1811026    
     32300   5.1670116e-07 -5.2016241     -5.2016241     -5.2016241     -5.2016241    
     32400   5.0027779e-07 -5.2217948     -5.2217948     -5.2217948     -5.2217948    
     32500   4.8452312e-07 -5.2416261     -5.2416261     -5.2416261     -5.2416261    
     32600   4.6943891e-07 -5.2611309     -5.2611309     -5.2611309     -5.2611309    
     32700   4.5502472e-07 -5.2803233     -5.2803233     -5.2803233     -5.2803233    
     32800   4.4127825e-07 -5.2992181     -5.2992181     -5.2992181     -5.2992181    
     32900   4.2819571e-07 -5.3178308     -5.3178308     -5.3178308     -5.3178308    
     33000   4.1577196e-07 -5.3361773     -5.3361773     -5.3361773     -5.3361773    
     33100   4.0400059e-07 -5.3542737     -5.3542737     -5.3542737     -5.3542737    
     33200   3.9287391e-07 -5.3721359     -5.3721359     -5.3721359     -5.3721359    
     33300   3.8238293e-07 -5.3897789     -5.3897789     -5.3897789     -5.3897789    
     33400   3.7251733e-07 -5.4072167     -5.4072167     -5.4072167     -5.4072167    
     33500   3.6326556e-07 -5.4244618     -5.4244618     -5.4244618     -5.4244618    
     33600   3.5461506e-07 -5.441525      -5.441525      -5.441525      -5.441525     
     33700   3.4655388e-07 -5.4584157     -5.4584157     -5.4584157     -5.4584157    
     33800   3.3906919e-07 -5.4751416     -5.4751416     -5.4751416     -5.4751416    
     33900   3.3214737e-07 -5.4917097     -5.4917097     -5.4917097     -5.4917098    
     34000   3.2577539e-07 -5.5081263     -5.5081263     -5.5081263     -5.508127     
     34100   3.1994235e-07 -5.5243976     -5.5243976     -5.5243976     -5.5243987    
     34200   3.1463784e-07 -5.5405298     -5.5405298     -5.5405298     -5.54053      
     34300   3.0985189e-07 -5.5565295     -5.5565295     -5.5565295     -5.5565265    
     34400   3.0557562e-07 -5.5724038     -5.5724038     -5.5724038     -5.5723949    
     34500   3.0180174e-07 -5.5881606     -5.5881606     -5.5881606     -5.5881426    
     34600   2.9852397e-07 -5.6038085     -5.6038085     -5.6038085     -5.6037771    
     34700   2.957356e-07  -5.6193571     -5.6193571     -5.6193571     -5.619308     
     34800   2.9342962e-07 -5.6348168     -5.6348168     -5.6348168     -5.6347474    
     34900   2.9159895e-07 -5.6501998     -5.6501998     -5.6501998     -5.6501099    
     35000   2.9023692e-07 -5.6655191     -5.6655191     -5.6655191     -5.665411     
     35100   2.8933837e-07 -5.6807892     -5.6807892     -5.6807892     -5.6806652    
     35200   2.8889767e-07 -5.6960254     -5.6960254     -5.6960254     -5.6958887    
     35300   2.8890836e-07 -5.7112437     -5.7112437     -5.7112437     -5.7110995    
     35400   2.8936425e-07 -5.7264603     -5.7264603     -5.7264603     -5.7263155    
     35500   2.9026224e-07 -5.7416915     -5.7416915     -5.7416915     -5.7415547    
     35600   2.9159981e-07 -5.7569527     -5.7569527     -5.7569527     -5.7568312    
     35700   2.9337057e-07 -5.7722584     -5.7722584     -5.772259      -5.7721561    
     35800   2.9556794e-07 -5.7876224     -5.7876224     -5.7876235     -5.7875434    
     35900   2.9818661e-07 -5.8030568     -5.8030568     -5.8030574     -5.8030083    
     36000   3.0122169e-07 -5.8185728     -5.8185728     -5.8185711     -5.8185622    
     36100   3.0466713e-07 -5.8341802     -5.8341802     -5.8341735     -5.8342175    
     36200   3.0851582e-07 -5.8498876     -5.8498876     -5.849873      -5.8499874    
     36300   3.1276155e-07 -5.8657021     -5.8657021     -5.8656772     -5.8658809    
     36400   3.1740021e-07 -5.8816297     -5.8816297     -5.881591      -5.8819069    
     36500   3.2242634e-07 -5.8976754     -5.8976754     -5.8976194     -5.8980735    
     36600   3.2783337e-07 -5.9138429     -5.9138429     -5.9137676     -5.9143898    
     36700   3.3361562e-07 -5.9301353     -5.9301353     -5.9300417     -5.9308631    
     36800   3.3976736e-07 -5.9465552     -5.9465552     -5.9464466     -5.9474983    
     36900   3.4628584e-07 -5.9631049     -5.9631049     -5.9629847     -5.9642987    
     37000   3.5316753e-07 -5.9797871     -5.9797871     -5.9796587     -5.9812675    
     37100   3.604106e-07  -5.9966045     -5.9966045     -5.9964732     -5.998409     
     37200   3.6800982e-07 -6.0135607     -6.0135607     -6.0134329     -6.0157297    
     37300   3.759603e-07  -6.0306598     -6.0306598     -6.0305445     -6.0332381    
     37400   3.8426195e-07 -6.0479066     -6.0479066     -6.0478126     -6.0509453    
     37500   3.9291175e-07 -6.0653065     -6.0653065     -6.0652388     -6.0688608    
     37600   4.0190175e-07 -6.0828651     -6.0828651     -6.0828272     -6.0869897    
     37700   4.1122219e-07 -6.1005886     -6.1005886     -6.1005858     -6.105337     
     37800   4.2086487e-07 -6.1184833     -6.1184833     -6.1185222     -6.1239086    
     37900   4.3082165e-07 -6.1365555     -6.1365555     -6.1366442     -6.1427085    
     38000   4.4108412e-07 -6.1548114     -6.1548114     -6.1549618     -6.161745     
     38100   4.5164171e-07 -6.1732569     -6.1732569     -6.173482      -6.1810303    
     38200   4.6248479e-07 -6.1918972     -6.1918972     -6.192212      -6.200571     
     38300   4.7360138e-07 -6.210737      -6.210737      -6.2111605     -6.2203704    
     38400   4.8497776e-07 -6.22978       -6.22978       -6.2303375     -6.2404356    
     38500   4.9659924e-07 -6.2490287     -6.2490287     -6.2497519     -6.2607747    
     38600   5.0845117e-07 -6.2684844     -6.2684844     -6.2694083     -6.2813912    
     38700   5.2051836e-07 -6.288147      -6.288147      -6.2893079     -6.3022829    
     38800   5.3278958e-07 -6.3080153     -6.3080153     -6.3094502     -6.3234454    
     38900   5.4525021e-07 -6.3280868     -6.3280868     -6.329835      -6.3448765    
     39000   5.5788616e-07 -6.3483582     -6.3483582     -6.3504653     -6.3665791    
     39100   5.706848e-07  -6.3688253     -6.3688253     -6.371348      -6.3885607    
     39200   5.8363112e-07 -6.3894831     -6.3894833     -6.3924873     -6.4108276    
     39300   5.9671011e-07 -6.4103264     -6.4103275     -6.413881      -6.433379     
     39400   6.0990697e-07 -6.4313497     -6.4313517     -6.4355239     -6.456211     
     39500   6.232069e-07  -6.4525473     -6.4525484     -6.4574089     -6.4793186    
     39600   6.3659806e-07 -6.4739137     -6.4739111     -6.4795316     -6.5027033    
     39700   6.5006573e-07 -6.4954435     -6.4954335     -6.5018954     -6.5263688    
     39800   6.6359514e-07 -6.5171316     -6.5171102     -6.5245006     -6.5503087    
     39900   6.7717435e-07 -6.5389734     -6.5389357     -6.547339      -6.5745164    
     40000   6.9078903e-07 -6.5609648     -6.5609049     -6.570405      -6.5989902    
     40100   7.0442171e-07 -6.5831021     -6.5830157     -6.5936981     -6.6237336    
     40200   7.1805514e-07 -6.6053823     -6.605268      -6.6172177     -6.6487586    
     40300   7.3167931e-07 -6.6278026     -6.6276615     -6.6409601     -6.674075     
     40400   7.4528509e-07 -6.6503605     -6.6501937     -6.6649187     -6.6996849    
     40500   7.5885913e-07 -6.6730537     -6.6728641     -6.6890888     -6.7255863    
     40600   7.7239837e-07 -6.6958795     -6.6956735     -6.7134727     -6.7517727    
     40700   7.8590001e-07 -6.7188353     -6.7186222     -6.7380783     -6.7782363    
     40800   7.9935376e-07 -6.7419178     -6.7417035     -6.7629108     -6.8049733    
     40900   8.1274625e-07 -6.7651235     -6.7649099     -6.7879706     -6.8319832    
     41000   8.2606551e-07 -6.7884479     -6.7882366     -6.8132548     -6.8592638    
     41100   8.3929967e-07 -6.8118861     -6.8116774     -6.8387616     -6.8868112    
     41200   8.524367e-07  -6.8354324     -6.8352314     -6.8644971     -6.9146211    
     41300   8.6546859e-07 -6.8590805     -6.8589018     -6.8904629     -6.9426922    
     41400   8.7839189e-07 -6.8828234     -6.8826873     -6.9166528     -6.9710271    
     41500   8.9120067e-07 -6.9066535     -6.906586      -6.9430636     -6.9996271    
     41600   9.0388716e-07 -6.9305625     -6.9305998     -6.9696946     -7.0284878    
     41700   9.1644219e-07 -6.9545418     -6.9547295     -6.9965531     -7.0576002    
     41800   9.2885346e-07 -6.9785825     -6.9789714     -7.0236481     -7.0869549    
     41900   9.4111372e-07 -7.0026757     -7.0033194     -7.0509816     -7.1165421    
     42000   9.5321669e-07 -7.0268123     -7.0277648     -7.0785506     -7.1463547    
     42100   9.6515398e-07 -7.0509838     -7.0523009     -7.106346      -7.1763881    
     42200   9.7692242e-07 -7.0751817     -7.0769283     -7.1343547     -7.2066375    
     42300   9.8851797e-07 -7.0993982     -7.1016533     -7.1625658     -7.2371012    
     42400   9.9992964e-07 -7.1236259     -7.126478      -7.1909739     -7.2677866    
     42500   1.0111541e-06 -7.1478582     -7.1513995     -7.2195731     -7.298705     
     42600   1.0221953e-06 -7.1720888     -7.1764094     -7.2483547     -7.3298603    
     42700   1.0330637e-06 -7.1963122     -7.2014995     -7.2773095     -7.3612509    
     42800   1.0437677e-06 -7.2205234     -7.2266728     -7.3064325     -7.3928709    
     42900   1.0543103e-06 -7.2447178     -7.2519333     -7.3357244     -7.4247114    
     43000   1.0647009e-06 -7.2688911     -7.2772749     -7.3651871     -7.4567666    
     43100   1.0749481e-06 -7.2930395     -7.3026908     -7.3948196     -7.489039     
     43200   1.0850655e-06 -7.3171593     -7.3281771     -7.4246148     -7.5215286    
     43300   1.0950708e-06 -7.3412469     -7.3537309     -7.4545646     -7.5542288    
     43400   1.1049709e-06 -7.3652985     -7.3793464     -7.4846613     -7.5871417    
     43500   1.1147745e-06 -7.3893102     -7.4050168     -7.5148992     -7.6202652    
     43600   1.1244949e-06 -7.4132782     -7.4307387     -7.5452753     -7.6535938    
     43700   1.1341381e-06 -7.4371979     -7.4565133     -7.5757885     -7.6871304    
     43800   1.1437128e-06 -7.4610647     -7.4823463     -7.6064389     -7.7208694    
     43900   1.1532302e-06 -7.4848736     -7.5082418     -7.6372317     -7.7547944    
     44000   1.1627083e-06 -7.5086194     -7.5341993     -7.6681784     -7.7888897    
     44100   1.1721635e-06 -7.5322965     -7.5602168     -7.699293      -7.8231501    
     44200   1.1816069e-06 -7.5558995     -7.586289      -7.7305817     -7.8575826    
     44300   1.1910464e-06 -7.5794226     -7.6124147     -7.7620445     -7.8921949    
     44400   1.2004973e-06 -7.6028603     -7.6385978     -7.7936778     -7.9269871    
     44500   1.2099702e-06 -7.6262074     -7.6648367     -7.8254732     -7.9619477    
     44600   1.2194711e-06 -7.6494586     -7.6911284     -7.8574208     -7.9970628    
     44700   1.2290196e-06 -7.6726092     -7.7174764     -7.8895166     -8.0323356    
     44800   1.2386364e-06 -7.695655      -7.7438872     -7.9217616     -8.0677808    
     44900   1.2483449e-06 -7.7185923     -7.7703691     -7.9541546     -8.1034138    
     45000   1.2581576e-06 -7.7414178     -7.7969322     -7.9866911     -8.139256     
     45100   1.2680809e-06 -7.764129      -7.8235815     -8.0193704     -8.1753274    
     45200   1.2781185e-06 -7.7867239     -7.8503131     -8.0521895     -8.2116364    
     45300   1.288282e-06  -7.8092013     -7.8771205     -8.0851443     -8.248188     
     45400   1.2985918e-06 -7.8315604     -7.9039962     -8.1182304     -8.284989     
     45500   1.3090624e-06 -7.8538008     -7.9309344     -8.1514382     -8.3220467    
     45600   1.3197126e-06 -7.8759226     -7.9579322     -8.1847548     -8.3593665    
     45700   1.3305657e-06 -7.8979263     -7.9849867     -8.218168      -8.3969562    
     45800   1.341632e-06  -7.9198124     -8.0120988     -8.251676      -8.4348202    
     45900   1.3529146e-06 -7.9415817     -8.0392712     -8.2852876     -8.4729572    
     46000   1.3644134e-06 -7.963235      -8.066505      -8.3190145     -8.5113656    
     46100   1.376129e-06  -7.984773      -8.0937972     -8.3528606     -8.5500476    
     46200   1.3880666e-06 -8.0061963     -8.1211413     -8.3868187     -8.5890073    
     46300   1.4002345e-06 -8.0275056     -8.1485378     -8.4208772     -8.6282463    
     46400   1.4126414e-06 -8.0487013     -8.1759889     -8.4550369     -8.667759     
     46500   1.4252935e-06 -8.0697835     -8.203494      -8.4893148     -8.707538     
     46600   1.4382054e-06 -8.0907524     -8.2310536     -8.5237292     -8.7475797    
     46700   1.4513867e-06 -8.111608      -8.2586689     -8.5582929     -8.7878798    
     46800   1.464844e-06  -8.1323504     -8.2863363     -8.5930235     -8.8284311    
     46900   1.4785796e-06 -8.1529794     -8.3140537     -8.6279424     -8.8692266    
     47000   1.4925946e-06 -8.1734951     -8.3418231     -8.6630643     -8.9102597    
     47100   1.5068868e-06 -8.1938979     -8.3696436     -8.6984021     -8.9515278    
     47200   1.5214608e-06 -8.214188      -8.397516      -8.7339664     -8.9930321    
     47300   1.5363252e-06 -8.2343664     -8.4254405     -8.7697646     -9.0347752    
     47400   1.5514819e-06 -8.254434      -8.4534173     -8.8057985     -9.0767619    
     47500   1.56694e-06   -8.2743926     -8.4814544     -8.8420677     -9.1190002    
     47600   1.5826989e-06 -8.2942439     -8.5095652     -8.8785752     -9.1614974    
     47700   1.5987532e-06 -8.3139904     -8.537763      -8.9153216     -9.2042548    
     47800   1.6150995e-06 -8.3336348     -8.5660574     -8.9523013     -9.2472717    
     47900   1.6317417e-06 -8.3531803     -8.5944514     -8.9895086     -9.2905501    
     48000   1.6486831e-06 -8.3726302     -8.6229462     -9.0269456     -9.3340936    
     48100   1.6659265e-06 -8.3919884     -8.6515392     -9.0646135     -9.377906     
     48200   1.6834683e-06 -8.4112589     -8.6802279     -9.102507      -9.4219948    
     48300   1.7013163e-06 -8.4304458     -8.7090117     -9.1406221     -9.4663654    
     48400   1.7194744e-06 -8.4495533     -8.7378871     -9.1789547     -9.5110238    
     48500   1.7379451e-06 -8.4685857     -8.7668467     -9.2175021     -9.5559807    
     48600   1.7567372e-06 -8.4875471     -8.7958836     -9.2562647     -9.6012404    
     48700   1.7758594e-06 -8.5064415     -8.8249942     -9.2952382     -9.6467969    
     48800   1.7953129e-06 -8.5252728     -8.8541805     -9.3344127     -9.6926415    
     48900   1.8151023e-06 -8.5440447     -8.8834472     -9.3737812     -9.7387709    
     49000   1.8352301e-06 -8.5627606     -8.9128017     -9.4133459     -9.7851819    
     49100   1.8557007e-06 -8.5814238     -8.9422456     -9.4531136     -9.8318737    
     49200   1.8765236e-06 -8.6000373     -8.9717741     -9.4930945     -9.8788475    
     49300   1.8977091e-06 -8.6186039     -9.0013844     -9.533297      -9.9261064    
     49400   1.919259e-06  -8.6371264     -9.031078      -9.5737247     -9.9736555    
     49500   1.9411749e-06 -8.6556074     -9.0608576     -9.614383      -10.021499    
     49600   1.9634655e-06 -8.6740494     -9.0907165     -9.6552788     -10.069639    
     49700   1.9861401e-06 -8.6924552     -9.1206514     -9.696419      -10.118068    
     49800   2.0091993e-06 -8.7108272     -9.1506682     -9.7378062     -10.166783    
     49900   2.0326496e-06 -8.7291682     -9.1807688     -9.7794429     -10.215782    
     50000   2.0565047e-06 -8.7474812     -9.2109578     -9.8213335     -10.265067    
Loop time of 27.139 on 1 procs for 30000 steps with 9576 atoms

Performance: 9550821.616 tau/day, 1105.419 timesteps/s, 10.585 Matom-step/s
99.5% CPU use with 1 MPI tasks x 1 OpenMP threads

MPI task timing breakdown:
Section |  min time  |  avg time  |  max time  |%varavg| %total
---------------------------------------------------------------
Pair    | 1.4689     | 1.4689     | 1.4689     |   0.0 |  5.41
Bond    | 22.908     | 22.908     | 22.908     |   0.0 | 84.41
Neigh   | 0.18471    | 0.18471    | 0.18471    |   0.0 |  0.68
Comm    | 0.060485   | 0.060485   | 0.060485   |   0.0 |  0.22
Output  | 0.01978    | 0.01978    | 0.01978    |   0.0 |  0.07
Modify  | 2.177      | 2.177      | 2.177      |   0.0 |  8.02
Other   |            | 0.3203     |            |       |  1.18

Nlocal:           9576 ave        9576 max        9576 min
Histogram: 1 0 0 0 0 0 0 0 0 0
Nghost:              0 ave           0 max           0 min
Histogram: 1 0 0 0 0 0 0 0 0 0
Neighs:          44764 ave       44764 max       44764 min
Histogram: 1 0 0 0 0 0 0 0 0 0

Total # of neighbors = 44764
Ave neighs/atom = 4.6746032
Ave special neighs/atom = 11.492063
Neighbor list builds = 53
Dangerous builds = 0

# hold load

unfix           3
fix             3 load addforce 0.0 0.0 -0.0005
run             50000
Generated 0 of 6 mixed pair_coeff terms from geometric mixing rule
Per MPI rank memory allocation (min/avg/max) = 20.45 | 20.45 | 20.45 Mbytes
   Step         KinEng        c_zmin1        c_zmin2        c_zmin3        c_zmin4    
     50000   2.0565047e-06 -8.7474812     -9.2109578     -9.8213335     -10.265067    
     50100   2.0790365e-06 -8.7657491     -9.2412287     -9.8634655     -10.314618    
     50200   2.0985219e-06 -8.7839033     -9.2715208     -9.9057799     -10.364359    
     50300   2.1150007e-06 -8.8018893     -9.301784      -9.9482324     -10.41423     
     50400   2.1285295e-06 -8.8196685     -9.3319827     -9.9907921     -10.464191    
     50500   2.139167e-06  -8.8372089     -9.3620814     -10.033425     -10.514211    
     50600   2.1469708e-06 -8.8544848     -9.3920491     -10.076101     -10.564267    
     50700   2.1520079e-06 -8.871475      -9.421863      -10.118792     -10.614339    
     50800   2.1543436e-06 -8.8881618     -9.451506      -10.16147      -10.664414    
     50900   2.1540538e-06 -8.90453       -9.4809686     -10.204106     -10.714477    
     51000   2.1512296e-06 -8.9205662     -9.5102523     -10.24667      -10.764514    
     51100   2.1459525e-06 -8.9362568     -9.5393578     -10.289134     -10.814506    
     51200   2.1383006e-06 -8.9515843     -9.5682783     -10.331478     -10.864431    
     51300   2.1283623e-06 -8.9665305     -9.597001      -10.373683     -10.914271    
     51400   2.116235e-06  -8.9810865     -9.6255128     -10.415729     -10.964005    
     51500   2.1020166e-06 -8.9952559     -9.6538067     -10.457602     -11.013619    
     51600   2.0858153e-06 -9.0090466     -9.6818834     -10.499295     -11.063104    
     51700   2.0677334e-06 -9.0224623     -9.7097443     -10.540812     -11.112454    
     51800   2.0478722e-06 -9.0354984     -9.7373871     -10.582154     -11.161667    
     51900   2.0263404e-06 -9.0481432     -9.7648075     -10.62332      -11.21074     
     52000   2.0032478e-06 -9.0603798     -9.7919988     -10.664299     -11.259667    
     52100   1.9787007e-06 -9.0721883     -9.8189514     -10.705077     -11.308439    
     52200   1.9528138e-06 -9.0835474     -9.845654      -10.745644     -11.357044    
     52300   1.9256932e-06 -9.094434      -9.8720958     -10.785992     -11.405475    
     52400   1.8974412e-06 -9.1048239     -9.8982638     -10.826107     -11.453722    
     52500   1.8681454e-06 -9.1146937     -9.9241367     -10.865968     -11.501774    
     52600   1.8379009e-06 -9.124023      -9.9496837     -10.905548     -11.549618    
     52700   1.8068076e-06 -9.1327929     -9.9748735     -10.94483      -11.59724     
     52800   1.7749646e-06 -9.1409837     -9.999681      -10.983805     -11.644623    
     52900   1.7424664e-06 -9.1485725     -10.024084     -11.022464     -11.691747    
     53000   1.7093899e-06 -9.1555353     -10.048056     -11.060794     -11.738586    
     53100   1.6758083e-06 -9.1618514     -10.071569     -11.09878      -11.785117    
     53200   1.6417973e-06 -9.1675076     -10.0946       -11.136405     -11.831324    
     53300   1.6074408e-06 -9.1725        -10.117125     -11.173648     -11.877185    
     53400   1.5728179e-06 -9.1768343     -10.139122     -11.210481     -11.922682    
     53500   1.5380043e-06 -9.1805239     -10.160578     -11.246882     -11.967802    
     53600   1.5030665e-06 -9.1835872     -10.181481     -11.282827     -12.012535    
     53700   1.4680693e-06 -9.1860458     -10.201824     -11.318291     -12.056863    
     53800   1.4330732e-06 -9.1879224     -10.221605     -11.35325      -12.100768    
     53900   1.3981337e-06 -9.1892381     -10.240825     -11.38769      -12.144232    
     54000   1.3633048e-06 -9.1900109     -10.259495     -11.421601     -12.187239    
     54100   1.3286383e-06 -9.1902555     -10.277622     -11.454973     -12.229779    
     54200   1.2941802e-06 -9.1899849     -10.295216     -11.487801     -12.271841    
     54300   1.2599778e-06 -9.1892129     -10.312287     -11.52008      -12.313423    
     54400   1.2260719e-06 -9.1879552     -10.32884      -11.551809     -12.354565    
     54500   1.1924939e-06 -9.186229      -10.344883     -11.582985     -12.395206    
     54600   1.1592735e-06 -9.1840511     -10.360421     -11.613605     -12.435346    
     54700   1.1264439e-06 -9.1814366     -10.375457     -11.643665     -12.474987    
     54800   1.0940359e-06 -9.1783968     -10.389998     -11.673165     -12.51413     
     54900   1.0620729e-06 -9.174939      -10.404046     -11.702108     -12.552778    
     55000   1.0305727e-06 -9.171067      -10.417604     -11.730504     -12.590931    
     55100   9.995483e-07  -9.1667818     -10.430676     -11.758364     -12.62859     
     55200   9.6901122e-07 -9.1620826     -10.443262     -11.785701     -12.665757    
     55300   9.3897441e-07 -9.156969      -10.455362     -11.81252      -12.702431    
     55400   9.0944869e-07 -9.151443      -10.466976     -11.838826     -12.738611    
     55500   8.8044468e-07 -9.1455097     -10.478102     -11.86462      -12.774295    
     55600   8.5197319e-07 -9.1391785     -10.488737     -11.889904     -12.809481    
     55700   8.2404457e-07 -9.132462      -10.498875     -11.91468      -12.844172    
     55800   7.9666675e-07 -9.1253754     -10.508512     -11.938946     -12.87837     
     55900   7.6984442e-07 -9.1179359     -10.517638     -11.962705     -12.912103    
     56000   7.4358255e-07 -9.1101633     -10.526246     -11.985956     -12.945449    
     56100   7.1788301e-07 -9.1020796     -10.534329     -12.008699     -12.978338    
     56200   6.9274591e-07 -9.0937102     -10.541877     -12.030933     -13.010775    
     56300   6.6817135e-07 -9.0850832     -10.548885     -12.052654     -13.042756    
     56400   6.4416028e-07 -9.0762293     -10.555347     -12.073862     -13.074275    
     56500   6.2071225e-07 -9.0671806     -10.561262     -12.094557     -13.105327    
     56600   5.9782414e-07 -9.0579697     -10.56663      -12.114736     -13.135902    
     56700   5.7549344e-07 -9.0486279     -10.571457     -12.134394     -13.165991    
     56800   5.537178e-07  -9.0391843     -10.575746     -12.153525     -13.19559     
     56900   5.3249715e-07 -9.0296647     -10.579509     -12.172123     -13.224696    
     57000   5.1182857e-07 -9.0200909     -10.582753     -12.190182     -13.253304    
     57100   4.9170747e-07 -9.0104818     -10.585494     -12.207697     -13.281409    
     57200   4.7212886e-07 -9.0008538     -10.587744     -12.224666     -13.309003    
     57300   4.5308811e-07 -8.9912218     -10.589518     -12.241082     -13.336079    
     57400   4.3458061e-07 -8.9816002     -10.59083      -12.25694      -13.362635    
     57500   4.1660159e-07 -8.9720022     -10.591694     -12.272237     -13.388669    
     57600   3.9914652e-07 -8.9624402     -10.592125     -12.286972     -13.414177    
     57700   3.8221185e-07 -8.9529253     -10.592135     -12.301148     -13.439159    
     57800   3.6579398e-07 -8.9434667     -10.591737     -12.31477      -13.463618    
     57900   3.4988948e-07 -8.9340717     -10.590944     -12.327844     -13.487556    
     58000   3.344942e-07  -8.9247467     -10.589765     -12.340379     -13.510981    
     58100   3.1960309e-07 -8.9154974     -10.588211     -12.352386     -13.533898    
     58200   3.0521014e-07 -8.9063301     -10.586291     -12.363874     -13.556315    
     58300   2.9130863e-07 -8.897253      -10.584013     -12.374854     -13.578238    
     58400   2.7789045e-07 -8.8882772     -10.581383     -12.385337     -13.599673    
     58500   2.6494636e-07 -8.8794164     -10.578407     -12.395332     -13.620629    
     58600   2.524678e-07  -8.8706876     -10.575084     -12.404848     -13.641115    
     58700   2.4044627e-07 -8.8621095     -10.571413     -12.413895     -13.661143    
     58800   2.2887343e-07 -8.8537024     -10.567392     -12.422482     -13.680721    
     58900   2.1774161e-07 -8.8454866     -10.563021     -12.43062      -13.699858    
     59000   2.070434e-07  -8.8374822     -10.558303     -12.438315     -13.718558    
     59100   1.9677169e-07 -8.8297086     -10.553245     -12.445575     -13.736825    
     59200   1.8691961e-07 -8.8221839     -10.547856     -12.452407     -13.754663    
     59300   1.7747967e-07 -8.8149248     -10.542145     -12.458816     -13.772075    
     59400   1.6844364e-07 -8.8079467     -10.536127     -12.464809     -13.789059    
     59500   1.5980273e-07 -8.8012634     -10.52982      -12.47039      -13.805618    
     59600   1.5154716e-07 -8.7948863     -10.523242     -12.475563     -13.821753    
     59700   1.4366632e-07 -8.7888249     -10.516416     -12.480332     -13.837464    
     59800   1.3614961e-07 -8.7830856     -10.509368     -12.484698     -13.852753    
     59900   1.2898659e-07 -8.7776721     -10.502121     -12.488663     -13.867621    
     60000   1.2216727e-07 -8.7725855     -10.494706     -12.49223      -13.882067    
     60100   1.1568206e-07 -8.7678245     -10.487149     -12.495399     -13.896093    
     60200   1.0952184e-07 -8.7633865     -10.47948      -12.498173     -13.9097      
     60300   1.0367815e-07 -8.7592675     -10.471724     -12.500551     -13.922889    
     60400   9.8143033e-08 -8.7554632     -10.463904     -12.502535     -13.935663    
     60500   9.2908854e-08 -8.7519691     -10.456038     -12.504127     -13.948024    
     60600   8.7967984e-08 -8.7487808     -10.448143     -12.505328     -13.959977    
     60700   8.3312654e-08 -8.7458939     -10.440232     -12.50614      -13.971527    
     60800   7.8934848e-08 -8.7433043     -10.432317     -12.506566     -13.982679    
     60900   7.4826145e-08 -8.7410083     -10.424406     -12.506609     -13.993437    
     61000   7.0977622e-08 -8.7390026     -10.41651      -12.506273     -14.003807    
     61100   6.7379898e-08 -8.7372849     -10.408636     -12.505561     -14.013793    
     61200   6.4023231e-08 -8.7358541     -10.400793     -12.504481     -14.0234      
     61300   6.0897748e-08 -8.7347103     -10.392988     -12.503038     -14.032634    
     61400   5.7993617e-08 -8.7338554     -10.385228     -12.501238     -14.041501    
     61500   5.530114e-08  -8.7332919     -10.377517     -12.499086     -14.050006    
     61600   5.2810742e-08 -8.7330233     -10.369862     -12.496589     -14.058153    
     61700   5.0512891e-08 -8.7330528     -10.362268     -12.493761     -14.065949    
     61800   4.8398005e-08 -8.7333828     -10.35474      -12.490614     -14.073397    
     61900   4.645635e-08  -8.7340143     -10.347289     -12.487162     -14.080503    
     62000   4.4677953e-08 -8.7349462     -10.339924     -12.483419     -14.08727     
     62100   4.3052576e-08 -8.7361755     -10.332658     -12.479399     -14.093703    
     62200   4.1569744e-08 -8.7376973     -10.325508     -12.475115     -14.099807    
     62300   4.0218891e-08 -8.7395045     -10.318491     -12.470581     -14.105584    
     62400   3.8989542e-08 -8.7415886     -10.311625     -12.465811     -14.111041    
     62500   3.7871515e-08 -8.7439396     -10.304928     -12.460818     -14.116181    
     62600   3.6855083e-08 -8.7465463     -10.298418     -12.455617     -14.121007    
     62700   3.5931096e-08 -8.7493965     -10.292114     -12.45022      -14.125525    
     62800   3.5091028e-08 -8.752477      -10.286029     -12.444643     -14.129736    
     62900   3.4326984e-08 -8.7557735     -10.280178     -12.4389       -14.133643    
     63000   3.3631618e-08 -8.7592715     -10.274573     -12.433007     -14.137249    
     63100   3.2998002e-08 -8.7629561     -10.269223     -12.426975     -14.140556    
     63200   3.241956e-08  -8.7668125     -10.264138     -12.420818     -14.143567    
     63300   3.1889997e-08 -8.7708265     -10.259321     -12.414546     -14.146284    
     63400   3.1403277e-08 -8.7749847     -10.254776     -12.40817      -14.14871     
     63500   3.0953622e-08 -8.7792748     -10.250503     -12.401701     -14.150848    
     63600   3.0535558e-08 -8.7836857     -10.2465       -12.39515      -14.152702    
     63700   3.0144009e-08 -8.7882076     -10.242765     -12.388526     -14.154277    
     63800   2.9774418e-08 -8.7928317     -10.239293     -12.381843     -14.155576    
     63900   2.9422831e-08 -8.7975502     -10.23608      -12.375112     -14.156605    
     64000   2.9085956e-08 -8.8023563     -10.233121     -12.368345     -14.157368    
     64100   2.8761144e-08 -8.8072437     -10.230413     -12.361556     -14.157871    
     64200   2.8446334e-08 -8.8122066     -10.227952     -12.354757     -14.158119    
     64300   2.8139962e-08 -8.8172396     -10.225734     -12.347961     -14.158119    
     64400   2.7840797e-08 -8.8223373     -10.223757     -12.34118      -14.157876    
     64500   2.7547675e-08 -8.8274941     -10.222018     -12.334428     -14.157396    
     64600   2.7259292e-08 -8.8327037     -10.220516     -12.327718     -14.156687    
     64700   2.6974203e-08 -8.837959      -10.21925      -12.321064     -14.155754    
     64800   2.6690908e-08 -8.8432517     -10.218221     -12.314479     -14.154605    
     64900   2.6407938e-08 -8.8485725     -10.217429     -12.307977     -14.153244    
     65000   2.6123934e-08 -8.8539106     -10.216878     -12.30157      -14.151676    
     65100   2.5837747e-08 -8.8592543     -10.21657      -12.29527      -14.149901    
     65200   2.5548558e-08 -8.864591      -10.21651      -12.289089     -14.147916    
     65300   2.5255886e-08 -8.8699078     -10.2167       -12.283036     -14.145722    
     65400   2.4959515e-08 -8.8751915     -10.217142     -12.277122     -14.143319    
     65500   2.4659367e-08 -8.8804292     -10.217836     -12.271355     -14.140711    
     65600   2.4355403e-08 -8.8856083     -10.218782     -12.265742     -14.137905    
     65700   2.4047544e-08 -8.8907168     -10.219975     -12.260292     -14.134908    
     65800   2.3735628e-08 -8.8957432     -10.221411     -12.255012     -14.131728    
     65900   2.3419374e-08 -8.9006769     -10.223082     -12.249907     -14.128376    
     66000   2.3098394e-08 -8.9055082     -10.224978     -12.244985     -14.124861    
     66100   2.2772279e-08 -8.9102283     -10.227091     -12.240248     -14.121194    
     66200   2.2440697e-08 -8.9148295     -10.229409     -12.235702     -14.117386    
     66300   2.2103479e-08 -8.9193053     -10.231921     -12.231349     -14.113446    
     66400   2.1760669e-08 -8.9236505     -10.234614     -12.227193     -14.109387    
     66500   2.1412535e-08 -8.9278611     -10.237475     -12.223237     -14.105223    
     66600   2.1059567e-08 -8.9319341     -10.240491     -12.219482     -14.100967    
     66700   2.0702447e-08 -8.9358677     -10.243651     -12.215933     -14.096634    
     66800   2.034198e-08  -8.9396605     -10.246941     -12.212592     -14.092236    
     66900   1.9978986e-08 -8.9433117     -10.25035      -12.209463     -14.087787    
     67000   1.9614217e-08 -8.9468204     -10.253869     -12.206549     -14.083295    
     67100   1.9248308e-08 -8.9501859     -10.257488     -12.203853     -14.07877     
     67200   1.888178e-08  -8.9534071     -10.261199     -12.201377     -14.074221    
     67300   1.8515065e-08 -8.9564825     -10.264995     -12.199125     -14.069656    
     67400   1.8148543e-08 -8.9594101     -10.26887      -12.197097     -14.065083    
     67500   1.7782601e-08 -8.9621876     -10.272818     -12.195296     -14.060509    
     67600   1.7417694e-08 -8.9648118     -10.276834     -12.193722     -14.055941    
     67700   1.7054401e-08 -8.9672794     -10.280913     -12.192376     -14.051386    
     67800   1.6693433e-08 -8.9695865     -10.285053     -12.191258     -14.046851    
     67900   1.6335619e-08 -8.971729      -10.289248     -12.190367     -14.04234     
     68000   1.5981858e-08 -8.9737028     -10.293494     -12.189703     -14.037859    
     68100   1.5633059e-08 -8.9755038     -10.297787     -12.189263     -14.03341     
     68200   1.529008e-08  -8.9771283     -10.302122     -12.189044     -14.028999    
     68300   1.495367e-08  -8.9785733     -10.306491     -12.189042     -14.024631    
     68400   1.4624427e-08 -8.9798364     -10.310888     -12.189254     -14.020311    
     68500   1.4302785e-08 -8.9809163     -10.315303     -12.189674     -14.016049    
     68600   1.3989041e-08 -8.9818122     -10.319726     -12.190297     -14.011851    
     68700   1.3683406e-08 -8.9825248     -10.324148     -12.191117     -14.007726    
     68800   1.3386055e-08 -8.9830554     -10.328555     -12.192129     -14.003685    
     68900   1.3097171e-08 -8.9834064     -10.332938     -12.193327     -13.999734    
     69000   1.2816975e-08 -8.9835809     -10.337284     -12.194704     -13.995882    
     69100   1.2545737e-08 -8.9835828     -10.341582     -12.196254     -13.992137    
     69200   1.2283769e-08 -8.9834167     -10.345822     -12.197969     -13.988506    
     69300   1.2031392e-08 -8.983088      -10.349993     -12.199845     -13.984995    
     69400   1.1788894e-08 -8.9826024     -10.354087     -12.201873     -13.981612    
     69500   1.1556477e-08 -8.9819659     -10.358095     -12.204049     -13.978361    
     69600   1.1334227e-08 -8.9811848     -10.36201      -12.206365     -13.975249    
     69700   1.1122092e-08 -8.9802654     -10.365826     -12.208815     -13.972279    
     69800   1.0919883e-08 -8.9792134     -10.369537     -12.211395     -13.969456    
     69900   1.0727296e-08 -8.9780348     -10.373139     -12.214099     -13.966782    
     70000   1.0543944e-08 -8.9767344     -10.376629     -12.21692      -13.964258    
     70100   1.0369411e-08 -8.975317      -10.380005     -12.219853     -13.961887    
     70200   1.0203287e-08 -8.9737865     -10.383265     -12.222892     -13.959667    
     70300   1.0045205e-08 -8.9721465     -10.386408     -12.22603      -13.9576      
     70400   9.8948431e-09 -8.9704003     -10.389433     -12.229262     -13.955684    
     70500   9.7519208e-09 -8.9685506     -10.392341     -12.232579     -13.953918    
     70600   9.616176e-09  -8.9666004     -10.395131     -12.235975     -13.952302    
     70700   9.4873356e-09 -8.9645524     -10.397803     -12.239442     -13.950836    
     70800   9.3650837e-09 -8.9624096     -10.400354     -12.242973     -13.949517    
     70900   9.2490349e-09 -8.9601752     -10.402785     -12.246559     -13.948344    
     71000   9.1387212e-09 -8.9578527     -10.405093     -12.250194     -13.947318    
     71100   9.0335988e-09 -8.9554464     -10.407275     -12.25387      -13.946437    
     71200   8.9330694e-09 -8.9529607     -10.409329     -12.257576     -13.945699    
     71300   8.8365126e-09 -8.9504008     -10.411252     -12.261306     -13.945106    
     71400   8.7433216e-09 -8.9477723     -10.413039     -12.265052     -13.944658    
     71500   8.6529353e-09 -8.9450816     -10.414687     -12.268804     -13.944353    
     71600   8.5648607e-09 -8.9423355     -10.416192     -12.272555     -13.944193    
     71700   8.4786813e-09 -8.939541      -10.417551     -12.276297     -13.944177    
     71800   8.3940485e-09 -8.9367056     -10.41876      -12.280023     -13.944305    
     71900   8.3106624e-09 -8.9338369     -10.419817     -12.283726     -13.944575    
     72000   8.2282463e-09 -8.9309427     -10.42072      -12.287398     -13.944987    
     72100   8.1465223e-09 -8.9280305     -10.42147      -12.291035     -13.945538    
     72200   8.0651938e-09 -8.9251078     -10.422066     -12.294629     -13.946224    
     72300   7.9839355e-09 -8.9221819     -10.422509     -12.298175     -13.947042    
     72400   7.9023968e-09 -8.9192594     -10.422802     -12.301668     -13.947988    
     72500   7.8202158e-09 -8.9163467     -10.422947     -12.305104     -13.949058    
     72600   7.7370426e-09 -8.9134497     -10.422948     -12.308477     -13.950247    
     72700   7.652565e-09  -8.9105734     -10.422809     -12.311783     -13.95155     
     72800   7.5665317e-09 -8.9077227     -10.422534     -12.315018     -13.952963    
     72900   7.4787656e-09 -8.9049013     -10.422129     -12.318179     -13.954479    
     73000   7.3891667e-09 -8.9021129     -10.421598     -12.321261     -13.956094    
     73100   7.2977046e-09 -8.8993605     -10.420948     -12.32426      -13.957801    
     73200   7.2044002e-09 -8.8966467     -10.420182     -12.327173     -13.959594    
     73300   7.1093043e-09 -8.8939741     -10.419307     -12.329996     -13.961469    
     73400   7.0124743e-09 -8.891345      -10.418328     -12.332725     -13.963418    
     73500   6.9139582e-09 -8.8887617     -10.417248     -12.335356     -13.965436    
     73600   6.8137861e-09 -8.8862269     -10.416071     -12.337885     -13.967519    
     73700   6.7119721e-09 -8.8837432     -10.414802     -12.340309     -13.969662    
     73800   6.608524e-09  -8.8813136     -10.413444     -12.342625     -13.97186     
     73900   6.5034595e-09 -8.8789412     -10.411997     -12.344829     -13.974109    
     74000   6.3968237e-09 -8.8766294     -10.410466     -12.346919     -13.976404    
     74100   6.2887043e-09 -8.8743818     -10.408852     -12.348892     -13.978742    
     74200   6.1792409e-09 -8.8722023     -10.407157     -12.350744     -13.981118    
     74300   6.0686244e-09 -8.8700947     -10.405384     -12.352475     -13.983529    
     74400   5.957088e-09  -8.868063      -10.403534     -12.354082     -13.98597     
     74500   5.8448918e-09 -8.8661109     -10.401611     -12.355564     -13.988437    
     74600   5.7323045e-09 -8.8642423     -10.399617     -12.356921     -13.990926    
     74700   5.6195855e-09 -8.8624608     -10.397557     -12.35815      -13.993433    
     74800   5.5069716e-09 -8.8607696     -10.395434     -12.359254     -13.995953    
     74900   5.3946703e-09 -8.8591715     -10.393253     -12.360231     -13.998481    
     75000   5.2828609e-09 -8.857669      -10.391021     -12.361082     -14.001012    
     75100   5.1717015e-09 -8.8562641     -10.388741     -12.361809     -14.003541    
     75200   5.0613418e-09 -8.854958      -10.386421     -12.362412     -14.006062    
     75300   4.9519355e-09 -8.8537517     -10.384067     -12.362894     -14.00857     
     75400   4.8436513e-09 -8.8526454     -10.381685     -12.363256     -14.01106     
     75500   4.7366796e-09 -8.8516389     -10.379282     -12.363499     -14.013527    
     75600   4.6312322e-09 -8.8507315     -10.376865     -12.363627     -14.015965    
     75700   4.5275354e-09 -8.8499222     -10.374439     -12.36364      -14.018371    
     75800   4.4258186e-09 -8.8492095     -10.372011     -12.363542     -14.020739    
     75900   4.3263002e-09 -8.8485919     -10.369587     -12.363333     -14.023066    
     76000   4.2291736e-09 -8.8480676     -10.367173     -12.363017     -14.025348    
     76100   4.1345979e-09 -8.8476348     -10.364772     -12.362595     -14.02758     
     76200   4.0426936e-09 -8.8472917     -10.362389     -12.36207      -14.02976     
     76300   3.9535444e-09 -8.8470367     -10.360029     -12.361444     -14.031884    
     76400   3.8672037e-09 -8.8468681     -10.357694     -12.36072      -14.03395     
     76500   3.7837052e-09 -8.8467848     -10.355388     -12.359899     -14.035955    
     76600   3.7030739e-09 -8.8467854     -10.353112     -12.358984     -14.037898    
     76700   3.6253351e-09 -8.8468691     -10.35087      -12.357978     -14.039775    
     76800   3.5505203e-09 -8.847035      -10.348663     -12.356883     -14.041587    
     76900   3.4786673e-09 -8.8472822     -10.346492     -12.355703     -14.043331    
     77000   3.4098155e-09 -8.8476101     -10.34436      -12.354441     -14.045005    
     77100   3.3439984e-09 -8.8480179     -10.342268     -12.3531       -14.046608    
     77200   3.2812339e-09 -8.8485046     -10.340219     -12.351684     -14.04814     
     77300   3.221515e-09  -8.8490692     -10.338214     -12.350197     -14.049597    
     77400   3.1648039e-09 -8.8497104     -10.336257     -12.348642     -14.050979    
     77500   3.1110301e-09 -8.8504268     -10.33435      -12.347024     -14.052285    
     77600   3.0600935e-09 -8.8512164     -10.332496     -12.345346     -14.053512    
     77700   3.0118705e-09 -8.8520773     -10.330698     -12.343614     -14.05466     
     77800   2.9662231e-09 -8.8530069     -10.32896      -12.341832     -14.055727    
     77900   2.9230087e-09 -8.8540024     -10.327285     -12.340004     -14.056711    
     78000   2.8820875e-09 -8.8550607     -10.325677     -12.338135     -14.057612    
     78100   2.8433283e-09 -8.8561783     -10.324138     -12.33623      -14.058429    
     78200   2.806609e-09  -8.8573516     -10.322672     -12.334293     -14.05916     
     78300   2.7718148e-09 -8.8585765     -10.321282     -12.332328     -14.059806    
     78400   2.7388325e-09 -8.8598492     -10.319969     -12.330341     -14.060367    
     78500   2.7075442e-09 -8.8611654     -10.318737     -12.328334     -14.060842    
     78600   2.6778211e-09 -8.8625211     -10.317587     -12.326313     -14.061233    
     78700   2.6495198e-09 -8.8639122     -10.316519     -12.324281     -14.061539    
     78800   2.6224812e-09 -8.8653349     -10.315535     -12.322241     -14.061762    
     78900   2.5965338e-09 -8.8667854     -10.314635     -12.320198     -14.061904    
     79000   2.5714986e-09 -8.8682604     -10.313818     -12.318154     -14.061965    
     79100   2.5471972e-09 -8.8697564     -10.313084     -12.316114     -14.061947    
     79200   2.5234591e-09 -8.8712706     -10.312432     -12.31408      -14.061852    
     79300   2.5001278e-09 -8.8728002     -10.311861     -12.312056     -14.061681    
     79400   2.4770648e-09 -8.8743427     -10.311369     -12.310045     -14.061437    
     79500   2.4541504e-09 -8.8758956     -10.310955     -12.308051     -14.061122    
     79600   2.4312815e-09 -8.8774569     -10.310617     -12.306075     -14.060737    
     79700   2.4083671e-09 -8.8790244     -10.310353     -12.304122     -14.060285    
     79800   2.3853235e-09 -8.880596      -10.310162     -12.302195     -14.059769    
     79900   2.3620695e-09 -8.8821696     -10.310042     -12.300296     -14.059189    
     80000   2.3385226e-09 -8.8837431     -10.309992     -12.298429     -14.058549    
     80100   2.3145989e-09 -8.8853142     -10.310012     -12.296598     -14.057849    
     80200   2.2902142e-09 -8.8868807     -10.3101       -12.294804     -14.057093    
     80300   2.265288e-09  -8.88844       -10.310255     -12.29305      -14.056281    
     80400   2.2397482e-09 -8.8899896     -10.310478     -12.291341     -14.055415    
     80500   2.2135364e-09 -8.8915268     -10.310767     -12.289678     -14.054498    
     80600   2.1866114e-09 -8.8930486     -10.311122     -12.288065     -14.053532    
     80700   2.1589518e-09 -8.8945523     -10.311542     -12.286503     -14.052519    
     80800   2.1305549e-09 -8.8960347     -10.312027     -12.284995     -14.05146     
     80900   2.1014351e-09 -8.8974928     -10.312575     -12.283544     -14.050359    
     81000   2.0716191e-09 -8.8989237     -10.313185     -12.282151     -14.049218    
     81100   2.0411416e-09 -8.9003244     -10.313856     -12.280818     -14.04804     
     81200   2.0100407e-09 -8.9016922     -10.314586     -12.279547     -14.046827    
     81300   1.9783543e-09 -8.9030243     -10.315373     -12.278339     -14.045582    
     81400   1.9461194e-09 -8.9043184     -10.316215     -12.277194     -14.044309    
     81500   1.913372e-09  -8.9055723     -10.317108     -12.276115     -14.043011    
     81600   1.8801494e-09 -8.9067841     -10.31805      -12.275101     -14.041691    
     81700   1.8464931e-09 -8.9079521     -10.319038     -12.274154     -14.040352    
     81800   1.8124523e-09 -8.9090751     -10.320069     -12.273273     -14.038997    
     81900   1.7780857e-09 -8.9101518     -10.321139     -12.272458     -14.03763     
     82000   1.7434627e-09 -8.9111817     -10.322244     -12.271711     -14.036253    
     82100   1.7086624e-09 -8.9121639     -10.323381     -12.271031     -14.03487     
     82200   1.673771e-09  -8.9130982     -10.324547     -12.270418     -14.033483    
     82300   1.6388785e-09 -8.9139842     -10.325738     -12.269872     -14.032095    
     82400   1.6040746e-09 -8.9148218     -10.326952     -12.269393     -14.030708    
     82500   1.569445e-09  -8.9156108     -10.328185     -12.26898      -14.029326    
     82600   1.5350691e-09 -8.9163511     -10.329434     -12.268634     -14.027951    
     82700   1.5010184e-09 -8.9170427     -10.330697     -12.268353     -14.026584    
     82800   1.4673573e-09 -8.9176855     -10.331971     -12.268138     -14.025228    
     82900   1.4341444e-09 -8.9182791     -10.333255     -12.267989     -14.023885    
     83000   1.4014346e-09 -8.9188235     -10.334547     -12.267904     -14.022556    
     83100   1.3692818e-09 -8.9193183     -10.335844     -12.267883     -14.021244    
     83200   1.3377406e-09 -8.9197632     -10.337146     -12.267925     -14.01995     
     83300   1.3068665e-09 -8.9201579     -10.33845      -12.268029     -14.018676    
     83400   1.2767164e-09 -8.920502      -10.339755     -12.268195     -14.017424    
     83500   1.247346e-09  -8.9207952     -10.34106      -12.268421     -14.016195    
     83600   1.218808e-09  -8.9210371     -10.342361     -12.268706     -14.014991    
     83700   1.1911491e-09 -8.9212278     -10.343658     -12.269048     -14.013815    
     83800   1.164408e-09  -8.9213669     -10.344949     -12.269447     -14.012668    
     83900   1.1386136e-09 -8.9214548     -10.346231     -12.2699       -14.011553    
     84000   1.1137846e-09 -8.9214915     -10.347501     -12.270406     -14.01047     
     84100   1.0899305e-09 -8.9214776     -10.348759     -12.270963     -14.009422    
     84200   1.0670527e-09 -8.9214137     -10.35         -12.271568     -14.00841     
     84300   1.0451472e-09 -8.9213006     -10.351224     -12.27222      -14.007437    
     84400   1.0242064e-09 -8.9211395     -10.352426     -12.272917     -14.006504    
     84500   1.0042209e-09 -8.9209316     -10.353605     -12.273655     -14.005612    
     84600   9.8518095e-10 -8.9206784     -10.354759     -12.274434     -14.004762    
     84700   9.6707569e-10 -8.9203814     -10.355884     -12.275251     -14.003956    
     84800   9.4989288e-10 -8.9200424     -10.356979     -12.276103     -14.003195    
     84900   9.3361729e-10 -8.9196631     -10.358041     -12.276988     -14.002479    
     85000   9.1822918e-10 -8.9192454     -10.359069     -12.277904     -14.001809    
     85100   9.0370296e-10 -8.9187911     -10.360061     -12.278849     -14.001185    
     85200   8.9000649e-10 -8.918302      -10.361016     -12.279821     -14.000608    
     85300   8.7710117e-10 -8.91778       -10.361933     -12.280817     -14.000077    
     85400   8.6494284e-10 -8.9172268     -10.36281      -12.281835     -13.999593    
     85500   8.5348333e-10 -8.9166439     -10.363648     -12.282874     -13.999156    
     85600   8.4267234e-10 -8.916033      -10.364446     -12.283931     -13.998764    
     85700   8.3245933e-10 -8.9153955     -10.365203     -12.285003     -13.998418    
     85800   8.2279496e-10 -8.9147328     -10.365919     -12.28609      -13.998117    
     85900   8.1363203e-10 -8.9140463     -10.366595     -12.287189     -13.997862    
     86000   8.0492556e-10 -8.9133372     -10.36723      -12.288297     -13.99765     
     86100   7.9663237e-10 -8.9126068     -10.367824     -12.289413     -13.997483    
     86200   7.8871016e-10 -8.9118564     -10.368378     -12.290535     -13.99736     
     86300   7.8111638e-10 -8.9110872     -10.368891     -12.291661     -13.997279    
     86400   7.7380742e-10 -8.9103006     -10.369363     -12.292788     -13.997242    
     86500   7.6673816e-10 -8.9094977     -10.369794     -12.293914     -13.997247    
     86600   7.5986204e-10 -8.9086802     -10.370184     -12.295037     -13.997294    
     86700   7.5313182e-10 -8.9078495     -10.370533     -12.296156     -13.997382    
     86800   7.4650075e-10 -8.9070072     -10.370839     -12.297267     -13.997512    
     86900   7.3992389e-10 -8.906155      -10.371104     -12.298369     -13.997683    
     87000   7.333595e-10  -8.9052948     -10.371326     -12.299461     -13.997893    
     87100   7.2677002e-10 -8.9044282     -10.371506     -12.300539     -13.998143    
     87200   7.2012259e-10 -8.9035574     -10.371644     -12.301602     -13.998431    
     87300   7.1338903e-10 -8.9026842     -10.371738     -12.302648     -13.998756    
     87400   7.0654532e-10 -8.9018106     -10.37179      -12.303676     -13.999118    
     87500   6.9957074e-10 -8.9009386     -10.3718       -12.304683     -13.999515    
     87600   6.9244695e-10 -8.9000701     -10.371768     -12.305668     -13.999946    
     87700   6.8515718e-10 -8.899207      -10.371694     -12.30663      -14.000408    
     87800   6.7768578e-10 -8.8983512     -10.371579     -12.307567     -14.000901    
     87900   6.7001813e-10 -8.8975042     -10.371425     -12.308478     -14.001423    
     88000   6.6214105e-10 -8.8966676     -10.371232     -12.309362     -14.001973    
     88100   6.5404343e-10 -8.8958429     -10.371001     -12.310217     -14.002547    
     88200   6.4571711e-10 -8.8950314     -10.370735     -12.311043     -14.003146    
     88300   6.371576e-10  -8.8942343     -10.370434     -12.311839     -14.003766    
     88400   6.2836456e-10 -8.8934527     -10.370099     -12.312603     -14.004406    
     88500   6.1934201e-10 -8.8926874     -10.369734     -12.313336     -14.005064    
     88600   6.1009801e-10 -8.8919394     -10.369338     -12.314036     -14.005739    
     88700   6.0064406e-10 -8.8912094     -10.368915     -12.314702     -14.006429    
     88800   5.9099426e-10 -8.8904981     -10.368464     -12.315334     -14.007133    
     88900   5.8116442e-10 -8.8898063     -10.367989     -12.315932     -14.007849    
     89000   5.7117129e-10 -8.8891346     -10.367489     -12.316495     -14.008575    
     89100   5.6103201e-10 -8.8884836     -10.366967     -12.317022     -14.00931     
     89200   5.5076392e-10 -8.8878539     -10.366424     -12.317512     -14.010054    
     89300   5.4038467e-10 -8.8872463     -10.36586      -12.317967     -14.010804    
     89400   5.2991257e-10 -8.8866614     -10.365278     -12.318384     -14.01156     
     89500   5.1936703e-10 -8.8860999     -10.364678     -12.318765     -14.01232     
     89600   5.0876894e-10 -8.8855625     -10.36406      -12.319108     -14.013084    
     89700   4.9814094e-10 -8.88505       -10.363427     -12.319414     -14.013849    
     89800   4.8750732e-10 -8.884563      -10.362779     -12.319683     -14.014616    
     89900   4.7689367e-10 -8.8841023     -10.362117     -12.319913     -14.015381    
     90000   4.6632634e-10 -8.8836686     -10.361443     -12.320107     -14.016145    
     90100   4.5583172e-10 -8.8832625     -10.360757     -12.320264     -14.016905    
     90200   4.4543544e-10 -8.8828846     -10.360061     -12.320383     -14.017661    
     90300   4.3516183e-10 -8.8825354     -10.359356     -12.320466     -14.01841     
     90400   4.2503345e-10 -8.8822153     -10.358643     -12.320513     -14.019151    
     90500   4.1507101e-10 -8.8819245     -10.357924     -12.320525     -14.019883    
     90600   4.0529338e-10 -8.8816633     -10.357201     -12.320501     -14.020604    
     90700   3.9571793e-10 -8.8814317     -10.356475     -12.320443     -14.021313    
     90800   3.8636088e-10 -8.8812297     -10.355748     -12.320352     -14.022009    
     90900   3.7723756e-10 -8.881057      -10.355022     -12.320228     -14.022689    
     91000   3.6836267e-10 -8.8809133     -10.354297     -12.320072     -14.023353    
     91100   3.5975025e-10 -8.8807984     -10.353576     -12.319885     -14.024       
     91200   3.5141348e-10 -8.8807117     -10.352861     -12.319668     -14.024628    
     91300   3.4336433e-10 -8.8806527     -10.352153     -12.319421     -14.025237    
     91400   3.3561312e-10 -8.8806208     -10.351452     -12.319147     -14.025826    
     91500   3.2816808e-10 -8.8806155     -10.350762     -12.318845     -14.026394    
     91600   3.2103506e-10 -8.880636      -10.350082     -12.318517     -14.02694     
     91700   3.1421733e-10 -8.8806817     -10.349413     -12.318164     -14.027464    
     91800   3.0771562e-10 -8.880752      -10.348758     -12.317786     -14.027966    
     91900   3.015284e-10  -8.8808464     -10.348116     -12.317386     -14.028445    
     92000   2.9565217e-10 -8.8809641     -10.347489     -12.316963     -14.028901    
     92100   2.9008193e-10 -8.8811046     -10.346877     -12.316519     -14.029334    
     92200   2.848115e-10  -8.8812674     -10.34628      -12.316056     -14.029744    
     92300   2.7983385e-10 -8.8814518     -10.3457       -12.315573     -14.030129    
     92400   2.7514122e-10 -8.8816575     -10.345137     -12.315073     -14.030491    
     92500   2.7072506e-10 -8.8818838     -10.34459      -12.314556     -14.030829    
     92600   2.6657598e-10 -8.8821302     -10.344062     -12.314024     -14.031143    
     92700   2.6268346e-10 -8.8823961     -10.343551     -12.313478     -14.031433    
     92800   2.5903574e-10 -8.882681      -10.34306      -12.312919     -14.031698    
     92900   2.556197e-10  -8.8829843     -10.342588     -12.312348     -14.031938    
     93000   2.5242086e-10 -8.8833051     -10.342135     -12.311767     -14.032153    
     93100   2.4942356e-10 -8.8836429     -10.341703     -12.311176     -14.032343    
     93200   2.4661123e-10 -8.8839968     -10.341292     -12.310578     -14.032508    
     93300   2.4396681e-10 -8.8843659     -10.340903     -12.309973     -14.032647    
     93400   2.4147308e-10 -8.8847493     -10.340535     -12.309363     -14.032761    
     93500   2.3911305e-10 -8.885146      -10.340191     -12.308748     -14.032849    
     93600   2.3687019e-10 -8.8855549     -10.33987      -12.308131     -14.032912    
     93700   2.3472858e-10 -8.8859751     -10.339572     -12.307512     -14.032949    
     93800   2.3267294e-10 -8.8864053     -10.339299     -12.306893     -14.032961    
     93900   2.3068852e-10 -8.8868445     -10.33905      -12.306274     -14.032948    
     94000   2.2876101e-10 -8.8872915     -10.338826     -12.305658     -14.032911    
     94100   2.2687637e-10 -8.8877452     -10.338626     -12.305044     -14.03285     
     94200   2.2502079e-10 -8.8882045     -10.338452     -12.304435     -14.032766    
     94300   2.2318072e-10 -8.8886684     -10.338302     -12.303831     -14.032659    
     94400   2.2134296e-10 -8.8891358     -10.338176     -12.303233     -14.03253     
     94500   2.1949484e-10 -8.8896058     -10.338075     -12.302643     -14.032381    
     94600   2.1762451e-10 -8.8900775     -10.337998     -12.30206      -14.032211    
     94700   2.1572112e-10 -8.8905499     -10.337944     -12.301487     -14.032021    
     94800   2.137751e-10  -8.8910223     -10.337913     -12.300923     -14.031814    
     94900   2.1177822e-10 -8.8914939     -10.337904     -12.30037      -14.031589    
     95000   2.0972363e-10 -8.8919639     -10.337918     -12.299829     -14.031347    
     95100   2.076058e-10  -8.8924318     -10.337952     -12.2993       -14.031089    
     95200   2.0542037e-10 -8.8928968     -10.338008     -12.298784     -14.030816    
     95300   2.03164e-10   -8.8933582     -10.338083     -12.298282     -14.030528    
     95400   2.0083412e-10 -8.8938156     -10.338179     -12.297795     -14.030227    
     95500   1.9842891e-10 -8.8942681     -10.338293     -12.297323     -14.029913    
     95600   1.9594715e-10 -8.8947153     -10.338426     -12.296866     -14.029587    
     95700   1.9338828e-10 -8.8951564     -10.338577     -12.296426     -14.029249    
     95800   1.9075244e-10 -8.8955908     -10.338745     -12.296003     -14.028901    
     95900   1.8804062e-10 -8.8960179     -10.338931     -12.295598     -14.028541    
     96000   1.8525469e-10 -8.8964369     -10.339133     -12.29521      -14.028172    
     96100   1.8239755e-10 -8.8968472     -10.339352     -12.294841     -14.027794    
     96200   1.7947307e-10 -8.8972481     -10.339587     -12.294491     -14.027408    
     96300   1.7648608e-10 -8.8976389     -10.339837     -12.29416      -14.027014    
     96400   1.7344218e-10 -8.898019      -10.340102     -12.293849     -14.026613    
     96500   1.7034761e-10 -8.8983876     -10.34038      -12.293558     -14.026206    
     96600   1.6720906e-10 -8.8987441     -10.340673     -12.293287     -14.025793    
     96700   1.6403343e-10 -8.899088      -10.340978     -12.293037     -14.025376    
     96800   1.6082776e-10 -8.8994188     -10.341296     -12.292806     -14.024956    
     96900   1.5759908e-10 -8.8997358     -10.341625     -12.292597     -14.024534    
     97000   1.5435445e-10 -8.9000388     -10.341964     -12.292408     -14.02411     
     97100   1.511009e-10  -8.9003273     -10.342313     -12.292239     -14.023685    
     97200   1.4784559e-10 -8.9006011     -10.342671     -12.292091     -14.023261    
     97300   1.4459574e-10 -8.9008598     -10.343037     -12.291964     -14.022838    
     97400   1.4135876e-10 -8.9011034     -10.343409     -12.291857     -14.022418    
     97500   1.3814216e-10 -8.9013316     -10.343787     -12.29177      -14.022001    
     97600   1.3495355e-10 -8.9015445     -10.34417      -12.291703     -14.021588    
     97700   1.3180047e-10 -8.9017419     -10.344558     -12.291655     -14.021179    
     97800   1.286903e-10  -8.901924      -10.344948     -12.291628     -14.020777    
     97900   1.2563007e-10 -8.9020906     -10.34534      -12.291619     -14.020381    
     98000   1.2262636e-10 -8.9022419     -10.345734     -12.29163      -14.019991    
     98100   1.1968521e-10 -8.902378      -10.346128     -12.291659     -14.019609    
     98200   1.1681206e-10 -8.902499      -10.346523     -12.291706     -14.019235    
     98300   1.1401177e-10 -8.9026048     -10.346917     -12.291772     -14.01887     
     98400   1.1128864e-10 -8.9026956     -10.347309     -12.291855     -14.018513    
     98500   1.0864653e-10 -8.9027716     -10.347699     -12.291955     -14.018165    
     98600   1.0608885e-10 -8.9028327     -10.348087     -12.292071     -14.017826    
     98700   1.0361866e-10 -8.902879      -10.348472     -12.292204     -14.017497    
     98800   1.0123869e-10 -8.9029107     -10.348854     -12.292353     -14.017179    
     98900   9.895126e-11  -8.9029278     -10.349231     -12.292517     -14.01687     
     99000   9.6758311e-11 -8.9029304     -10.349604     -12.292696     -14.016573    
     99100   9.4661271e-11 -8.9029187     -10.349971     -12.292889     -14.016286    
     99200   9.2661007e-11 -8.9028928     -10.350334     -12.293095     -14.016011    
     99300   9.0757763e-11 -8.9028529     -10.35069      -12.293314     -14.015747    
     99400   8.8951135e-11 -8.9027992     -10.351039     -12.293546     -14.015495    
     99500   8.724008e-11  -8.9027319     -10.351382     -12.293789     -14.015256    
     99600   8.5622967e-11 -8.9026514     -10.351716     -12.294044     -14.01503     
     99700   8.4097648e-11 -8.9025579     -10.352042     -12.294309     -14.014817    
     99800   8.2661557e-11 -8.9024518     -10.35236      -12.294584     -14.014617    
     99900   8.1311789e-11 -8.9023336     -10.352668     -12.294867     -14.014431    
    100000   8.0045183e-11 -8.9022038     -10.352966     -12.295159     -14.01426     
Loop time of 29.9126 on 1 procs for 50000 steps with 9576 atoms

Performance: 14442051.936 tau/day, 1671.534 timesteps/s, 16.007 Matom-step/s
99.5% CPU use with 1 MPI tasks x 1 OpenMP threads

MPI task timing breakdown:
Section |  min time  |  avg time  |  max time  |%varavg| %total
---------------------------------------------------------------
Pair    | 1.6635     | 1.6635     | 1.6635     |   0.0 |  5.56
Bond    | 24.359     | 24.359     | 24.359     |   0.0 | 81.43
Neigh   | 0.11217    | 0.11217    | 0.11217    |   0.0 |  0.38
Comm    | 0.036763   | 0.036763   | 0.036763   |   0.0 |  0.12
Output  | 0.034842   | 0.034842   | 0.034842   |   0.0 |  0.12
Modify  | 3.1727     | 3.1727     | 3.1727     |   0.0 | 10.61
Other   |            | 0.5334     |            |       |  1.78

Nlocal:           9576 ave        9576 max        9576 min
Histogram: 1 0 0 0 0 0 0 0 0 0
Nghost:              0 ave           0 max           0 min
Histogram: 1 0 0 0 0 0 0 0 0 0
Neighs:          44747 ave       44747 max       44747 min
Histogram: 1 0 0 0 0 0 0 0 0 0

Total # of neighbors = 44747
Ave neighs/atom = 4.6728279
Ave special neighs/atom = 11.492063
Neighbor list builds = 31
Dangerous builds = 0

# remove load

unfix           3
run             60000
Generated 0 of 6 mixed pair_coeff terms from geometric mixing rule
Per MPI rank memory allocation (min/avg/max) = 20.67 | 20.67 | 20.67 Mbytes
   Step         KinEng        c_zmin1        c_zmin2        c_zmin3        c_zmin4    
    100000   8.0045183e-11 -8.9022038     -10.352966     -12.295159     -14.01426     
    100100   3.6111258e-07 -8.8859132     -10.337578     -12.280465     -13.99941     
    100200   1.1531966e-06 -8.8482192     -10.301504     -12.246182     -13.966901    
    100300   2.2142935e-06 -8.7963555     -10.251564     -12.198549     -13.920682    
    100400   3.4557788e-06 -8.7325129     -10.189928     -12.139696     -13.864238    
    100500   4.8313862e-06 -8.6587215     -10.118563     -12.071493     -13.798538    
    100600   6.3478161e-06 -8.5764801     -10.038954     -11.995397     -13.725132    
    100700   7.9912296e-06 -8.4869109     -9.9522867     -11.912662     -13.645566    
    100800   9.6347675e-06 -8.3908979     -9.8594452     -11.824129     -13.560354    
    100900   1.1269131e-05 -8.2890257     -9.7609524     -11.730275     -13.470085    
    101000   1.2964651e-05 -8.1817825     -9.6572155     -11.631605     -13.375414    
    101100   1.4773028e-05 -8.0685364     -9.5475225     -11.527375     -13.276073    
    101200   1.6731508e-05 -7.9480595     -9.4307845     -11.416583     -13.170871    
    101300   1.8848453e-05 -7.8217771     -9.3079655     -11.299821     -13.059631    
    101400   2.1104424e-05 -7.694149      -9.1823019     -11.179376     -12.944028    
    101500   2.3506266e-05 -7.5685563     -9.0567554     -11.057706     -12.82625     
    101600   2.6023845e-05 -7.4449443     -8.9323032     -10.936038     -12.707699    
    101700   2.8554482e-05 -7.3210766     -8.8080955     -10.81416      -12.588599    
    101800   3.0979895e-05 -7.1942912     -8.6823131     -10.69086      -12.468221    
    101900   3.3223452e-05 -7.0623732     -8.5529586     -10.564567     -12.345332    
    102000   3.5273961e-05 -6.923844      -8.4184446     -10.433961     -12.218715    
    102100   3.7160473e-05 -6.777838      -8.2776895     -10.298128     -12.08757     
    102200   3.8891868e-05 -6.6237014     -8.1298386     -10.156307     -11.951316    
    102300   4.0453256e-05 -6.4608127     -7.9741485     -10.007757     -11.809275    
    102400   4.1853569e-05 -6.2890437     -7.8103364     -9.8520621     -11.660869    
    102500   4.3137212e-05 -6.1092382     -7.6389132     -9.6894034     -11.506047    
    102600   4.4357552e-05 -5.922621      -7.4607792     -9.5202932     -11.3452      
    102700   4.5538036e-05 -5.7295714     -7.2763652     -9.3449724     -11.178596    
    102800   4.6653019e-05 -5.529329      -7.0853172     -9.1631575     -11.006006    
    102900   4.7652588e-05 -5.3209616     -6.887         -8.9743742     -10.826925    
    103000   4.8490035e-05 -5.1045148     -6.6812877     -8.7785511     -10.641122    
    103100   4.912312e-05  -4.8814643     -6.4690889     -8.5764726     -10.449127    
    103200   4.9513202e-05 -4.654409      -6.2523618     -8.3698589     -10.252419    
    103300   4.9636128e-05 -4.4263688     -6.0336801     -8.1610485     -10.053185    
    103400   4.9495916e-05 -4.2001204     -5.8156611     -7.9524984     -9.8538227    
    103500   4.9128244e-05 -3.9778825     -5.600584      -7.7463942     -9.6564897    
    103600   4.8581527e-05 -3.7613322     -5.3902713     -7.544482      -9.4629148    
    103700   4.7893674e-05 -3.5516105     -5.1860199     -7.3479878     -9.2743345    
    103800   4.7090581e-05 -3.3491107     -4.9884304     -7.1575023     -9.0913821    
    103900   4.6197026e-05 -3.1533503     -4.7973127     -6.9729352     -8.9140124    
    104000   4.5237973e-05 -2.963316      -4.6119255     -6.7937136     -8.7416884    
    104100   4.4225053e-05 -2.7781546     -4.4314963     -6.6191964     -8.5739135    
    104200   4.3142205e-05 -2.6104167     -4.2556789     -6.4490639     -8.4101486    
    104300   4.1952393e-05 -2.5232304     -4.0846501     -6.2834444     -8.2505003    
    104400   4.0623401e-05 -2.4971959     -3.9188237     -6.1227222     -8.0953886    
    104500   3.9147081e-05 -2.496405      -3.7584038     -5.9671671     -7.9451987    
    104600   3.7537794e-05 -2.496405      -3.603067      -5.8166239     -7.7999559    
    104700   3.5821026e-05 -2.496405      -3.451932      -5.670428      -7.6591573    
    104800   3.402515e-05  -2.496405      -3.3037597     -5.5275143     -7.5219318    
    104900   3.218118e-05  -2.496405      -3.1572184     -5.3866842     -7.3873595    
    105000   3.0323728e-05 -2.496405      -3.0111092     -5.2469815     -7.2545779    
    105100   2.8485534e-05 -2.496405      -2.864563      -5.1078383     -7.1227482    
    105200   2.6688145e-05 -2.496405      -2.7172624     -4.9690224     -6.9914009    
    105300   2.4939723e-05 -2.496405      -2.6262885     -4.8306981     -6.8606907    
    105400   2.3239519e-05 -2.496405      -2.5945694     -4.6935287     -6.7311254    
    105500   2.1583279e-05 -2.496405      -2.569185      -4.5585348     -6.6033465    
    105600   1.9964082e-05 -2.496405      -2.5552749     -4.4267345     -6.4780047    
    105700   1.8371202e-05 -2.496405      -2.5455282     -4.2989685     -6.3557185    
    105800   1.6793977e-05 -2.496405      -2.5412297     -4.1757937     -6.2370454    
    105900   1.5230291e-05 -2.496405      -2.5381036     -4.0576209     -6.1223884    
    106000   1.3691488e-05 -2.496405      -2.5349928     -3.9443387     -6.0120791    
    106100   1.2198996e-05 -2.496405      -2.5308609     -3.8363135     -5.9064818    
    106200   1.0775526e-05 -2.496405      -2.5250751     -3.7340711     -5.8060543    
    106300   9.4384085e-06 -2.496405      -2.5199488     -3.6383033     -5.7113868    
    106400   8.1990221e-06 -2.496405      -2.5154344     -3.5497476     -5.6231315    
    106500   7.0651385e-06 -2.496405      -2.5102171     -3.4690009     -5.5418797    
    106600   6.0412971e-06 -2.496405      -2.5046965     -3.396486      -5.4680576    
    106700   5.1264316e-06 -2.496405      -2.5005943     -3.3324005     -5.4019025    
    106800   4.3124646e-06 -2.496405      -2.4978087     -3.2769652     -5.3433833    
    106900   3.5863326e-06 -2.496405      -2.496405      -3.2304201     -5.2921647    
    107000   2.9348898e-06 -2.496405      -2.496405      -3.1902291     -5.2477093    
    107100   2.3487681e-06 -2.496405      -2.496405      -3.1557592     -5.2093834    
    107200   1.8233805e-06 -2.496405      -2.496405      -3.1264067     -5.1765447    
    107300   1.3584016e-06 -2.496405      -2.496405      -3.1016719     -5.1486272    
    107400   9.5755478e-07 -2.496405      -2.496405      -3.0811707     -5.1251869    
    107500   6.280262e-07  -2.496405      -2.496405      -3.0646056     -5.1058673    
    107600   3.7850091e-07 -2.496405      -2.496405      -3.0517238     -5.0903591    
    107700   2.1605215e-07 -2.496405      -2.496405      -3.0422752     -5.0783887    
    107800   1.4328778e-07 -2.496405      -2.496405      -3.0359969     -5.0696803    
    107900   1.5753742e-07 -2.496405      -2.496405      -3.0326272     -5.0639238    
    108000   2.5195476e-07 -2.496405      -2.496405      -3.0321961     -5.0607883    
    108100   4.171079e-07  -2.496405      -2.496405      -3.0340302     -5.0599456    
    108200   6.4204419e-07 -2.496405      -2.496405      -3.0379309     -5.0611315    
    108300   9.1481593e-07 -2.496405      -2.496405      -3.0443933     -5.0642492    
    108400   1.2235622e-06 -2.496405      -2.496405      -3.0535521     -5.0694105    
    108500   1.5585306e-06 -2.496405      -2.496405      -3.0656563     -5.0769062    
    108600   1.9140563e-06 -2.496405      -2.496405      -3.0811498     -5.0871546    
    108700   2.2890668e-06 -2.496405      -2.496405      -3.100514      -5.1006602    
    108800   2.6856951e-06 -2.496405      -2.496405      -3.1241791     -5.1179798    
    108900   3.1070353e-06 -2.496405      -2.496405      -3.1524489     -5.1396404    
    109000   3.5552248e-06 -2.496405      -2.496405      -3.1854755     -5.1660199    
    109100   4.0302207e-06 -2.496405      -2.4981885     -3.2235213     -5.1972956    
    109200   4.5290443e-06 -2.496405      -2.4996959     -3.268537      -5.233479     
    109300   5.0454413e-06 -2.496405      -2.5006778     -3.3186808     -5.2744804    
    109400   5.5703015e-06 -2.496405      -2.5011686     -3.3737362     -5.3201559    
    109500   6.092998e-06  -2.496405      -2.5015641     -3.4334594     -5.3703286    
    109600   6.6031481e-06 -2.496405      -2.5020303     -3.497569      -5.4247803    
    109700   7.0920283e-06 -2.496405      -2.5025323     -3.5657121     -5.4832269    
    109800   7.5533295e-06 -2.496405      -2.5033285     -3.6374284     -5.5452985    
    109900   7.9834804e-06 -2.496405      -2.5045872     -3.7121327     -5.6105374    
    110000   8.3817663e-06 -2.496405      -2.5063825     -3.7891293     -5.6784095    
    110100   8.7500435e-06 -2.496405      -2.5111047     -3.8676629     -5.7483203    
    110200   9.0916917e-06 -2.496405      -2.5178035     -3.9470022     -5.8196421    
    110300   9.4099288e-06 -2.496405      -2.5254073     -4.0265266     -5.891768     
    110400   9.7062123e-06 -2.496405      -2.536647      -4.105784      -5.964179     
    110500   9.9794612e-06 -2.496405      -2.5519298     -4.1845062     -6.0364938    
    110600   1.0226254e-05 -2.496405      -2.5763956     -4.2625868     -6.108479     
    110700   1.0441613e-05 -2.496405      -2.6041665     -4.3400409     -6.1800244    
    110800   1.061994e-05  -2.496405      -2.6456798     -4.4169582     -6.2511044    
    110900   1.0755983e-05 -2.496405      -2.7043026     -4.4934642     -6.3217445    
    111000   1.0845826e-05 -2.496405      -2.7877068     -4.5696954     -6.3920053    
    111100   1.0887747e-05 -2.496405      -2.8738426     -4.6457925     -6.4619782    
    111200   1.0882606e-05 -2.496405      -2.9602856     -4.7219079     -6.5317857    
    111300   1.0833585e-05 -2.496405      -3.0472127     -4.7982211     -6.6015822    
    111400   1.074542e-05  -2.496405      -3.1348387     -4.8749479     -6.6715546    
    111500   1.0623438e-05 -2.4971063     -3.2234045     -4.9523296     -6.741918     
    111600   1.0472632e-05 -2.4980104     -3.3131262     -5.030599      -6.812899     
    111700   1.029683e-05  -2.498983      -3.4041254     -5.1099301     -6.884702     
    111800   1.0098109e-05 -2.5017812     -3.4963658     -5.1903891     -6.9574638    
    111900   9.8766522e-06 -2.5167567     -3.589617      -5.2719006     -7.0312145    
    112000   9.6312228e-06 -2.5747146     -3.683456      -5.3542391     -7.1058555    
    112100   9.360098e-06  -2.6829188     -3.7773037     -5.437046      -7.1811624    
    112200   9.0620784e-06 -2.7892709     -3.870489      -5.5198669     -7.2568089    
    112300   8.737211e-06  -2.8930876     -3.9623255     -5.6021992     -7.3324022    
    112400   8.3871177e-06 -2.9937914     -4.0521806     -5.68354       -7.4075206    
    112500   8.0150155e-06 -3.0909144     -4.1395224     -5.7634228     -7.481745     
    112600   7.6255041e-06 -3.1840818     -4.2239321     -5.8414383     -7.5546811    
    112700   7.2241056e-06 -3.2729921     -4.3050883     -5.9172367     -7.6259714    
    112800   6.8165627e-06 -3.357405      -4.3827362     -5.9905178     -7.6952972    
    112900   6.4080414e-06 -3.4371465     -4.456664      -6.0610189     -7.762375     
    113000   6.0024832e-06 -3.512127      -4.5266955     -6.1285096     -7.8269528    
    113100   5.6022928e-06 -3.5823653     -4.5927043     -6.1927984     -7.8888123    
    113200   5.2084013e-06 -3.6480077     -4.6546408     -6.2537497     -7.9477794    
    113300   4.820637e-06  -3.7093304     -4.7125587     -6.3113031     -8.0037386    
    113400   4.4383144e-06 -3.7667212     -4.7666318     -6.3654886     -8.0566469    
    113500   4.060925e-06  -3.8206385     -4.8171494     -6.4164304     -8.106541     
    113600   3.6887627e-06 -3.8715578     -4.8644903     -6.4643358     -8.1535334    
    113700   3.323288e-06  -3.9199149     -4.9090765     -6.5094725     -8.1978001    
    113800   2.9671229e-06 -3.9660615     -4.9513188     -6.5521355     -8.2395595    
    113900   2.6237195e-06 -4.0102394     -4.991566      -6.5926125     -8.279049     
    114000   2.2968586e-06 -4.0525774     -5.0300709     -6.6311554     -8.3165021    
    114100   1.9901193e-06 -4.0931037     -5.0669793     -6.6679612     -8.3521296    
    114200   1.7063993e-06 -4.1317672     -5.1023394     -6.7031659     -8.3861065    
    114300   1.4475319e-06 -4.1684556     -5.1361238     -6.7368481     -8.4185651    
    114400   1.2140776e-06 -4.2030062     -5.1682513     -6.7690358     -8.4495925    
    114500   1.0053782e-06 -4.2352084     -5.1986019     -6.7997112     -8.4792305    
    114600   8.1989287e-07 -4.2648003     -5.2270208     -6.8288121     -8.5074739    
    114700   6.5572006e-07 -4.2914676     -5.2533133     -6.8562286     -8.5342688    
    114800   5.1114176e-07 -4.314851      -5.2772389     -6.8817992     -8.5595101    
    114900   3.8504234e-07 -4.3345656     -5.29851       -6.9053124     -8.5830425    
    115000   2.7712169e-07 -4.3502337     -5.3168023     -6.9265146     -8.6046668    
    115100   1.8788071e-07 -4.3615237     -5.3317789     -6.9451285     -8.624153     
    115200   1.1839541e-07 -4.3681883     -5.3431246     -6.9608779     -8.641259     
    115300   6.9935538e-08 -4.3700925     -5.3505838     -6.9735166     -8.655753     
    115400   4.3527445e-08 -4.3672256     -5.3539929     -6.9828544     -8.6674343    
    115500   3.9577925e-08 -4.3596958     -5.3532982     -6.9887743     -8.6761512    
    115600   5.7644496e-08 -4.347711      -5.3485569     -6.9912392     -8.6818111    
    115700   9.6381182e-08 -4.3315524     -5.3399225     -6.9902862     -8.6843831    
    115800   1.5364905e-07 -4.3115479     -5.3276198     -6.9860136     -8.6838939    
    115900   2.2676916e-07 -4.2880507     -5.3119181     -6.9785648     -8.6804183    
    116000   3.1288425e-07 -4.2614265     -5.2931094     -6.968114      -8.6740692    
    116100   4.0936124e-07 -4.2320476     -5.2714952     -6.9548578     -8.6649884    
    116200   5.1413011e-07 -4.200289      -5.247381      -6.9390113     -8.6533422    
    116300   6.2585713e-07 -4.1665234     -5.2210768     -6.9208084     -8.6393186    
    116400   7.4390767e-07 -4.1311102     -5.192897      -6.9005015     -8.623126     
    116500   8.6813066e-07 -4.0943773     -5.163155      -6.8783572     -8.6049911    
    116600   9.9854658e-07 -4.056599      -5.1321506     -6.8546469     -8.5851523    
    116700   1.1350265e-06 -4.0179745     -5.1001503     -6.8296309     -8.5638495    
    116800   1.27703e-06   -3.9786121     -5.0673651     -6.8035398     -8.5413112    
    116900   1.4234511e-06 -3.9385254     -5.0339306     -6.7765565     -8.5177386    
    117000   1.572599e-06  -3.8976407     -4.999897      -6.7488028     -8.4932926    
    117100   1.7223192e-06 -3.8558163     -4.9652309     -6.7203349     -8.4680839    
    117200   1.8702221e-06 -3.8128677     -4.9298285     -6.6911467     -8.4421696    
    117300   2.0139674e-06 -3.7685947     -4.8935381     -6.6611811     -8.4155556    
    117400   2.1515386e-06 -3.7228051     -4.8561856     -6.6303451     -8.3882047    
    117500   2.2814534e-06 -3.6753317     -4.8175981     -6.598526      -8.3600477    
    117600   2.4028641e-06 -3.6260431     -4.7776218     -6.5656056     -8.3309953    
    117700   2.5155219e-06 -3.5748495     -4.7361334     -6.5314715     -8.3009492    
    117800   2.6196112e-06 -3.5217058     -4.6930442     -6.4960248     -8.2698113    
    117900   2.7154987e-06 -3.466616      -4.6483026     -6.4591864     -8.2374923    
    118000   2.803471e-06  -3.409638      -4.6018949     -6.4209024     -8.2039184    
    118100   2.8835325e-06 -3.3508903     -4.5538489     -6.3811501     -8.169039     
    118200   2.9553077e-06 -3.2905564     -4.50424       -6.3399447     -8.1328329    
    118300   3.0180549e-06 -3.2288858     -4.4531966     -6.2973452     -8.0953153    
    118400   3.0707736e-06 -3.1661873     -4.4009048     -6.2534583     -8.0565418    
    118500   3.1123796e-06 -3.1028162     -4.3476065     -6.2084383     -8.0166108    
    118600   3.1419098e-06 -3.0391546     -4.293591      -6.162482      -7.9756615    
    118700   3.1587179e-06 -2.9755882     -4.2391799     -6.1158195     -7.9338682    
    118800   3.1626127e-06 -2.9124843     -4.184707      -6.0687015     -7.8914317    
    118900   3.1539052e-06 -2.8501722     -4.1304973     -6.0213848     -7.8485681    
    119000   3.1333514e-06 -2.788931      -4.0768483     -5.9741203     -7.8054984    
    119100   3.1020079e-06 -2.7289825     -4.0240163     -5.9271417     -7.7624388    
    119200   3.0610359e-06 -2.6704905     -3.9722094     -5.8806596     -7.7195934    
    119300   3.0115044e-06 -2.6135625     -3.9215862     -5.8348563     -7.6771494    
    119400   2.9542386e-06 -2.5582535     -3.8722575     -5.7898844     -7.6352731    
    119500   2.8897487e-06 -2.51699       -3.8242903     -5.7458649     -7.5941076    
    119600   2.8182495e-06 -2.5010252     -3.7777109     -5.7028858     -7.5537695    
    119700   2.7397569e-06 -2.4979001     -3.7325063     -5.6609994     -7.5143458    
    119800   2.6542316e-06 -2.4971457     -3.6886257     -5.6202212     -7.4758912    
    119900   2.5617303e-06 -2.496405      -3.6459827     -5.5805292     -7.4384255    
    120000   2.4625349e-06 -2.496405      -3.6044608     -5.5418671     -7.4019337    
    120100   2.3572338e-06 -2.496405      -3.5639231     -5.5041502     -7.3663697    
    120200   2.2467378e-06 -2.496405      -3.5242257     -5.4672755     -7.3316622    
    120300   2.1322257e-06 -2.496405      -3.4852344     -5.4311343     -7.2977244    
    120400   2.0150283e-06 -2.496405      -3.4468399     -5.3956253     -7.2644648    
    120500   1.8964774e-06 -2.496405      -3.4089722     -5.3606668     -7.2317985    
    120600   1.7777594e-06 -2.496405      -3.3716083     -5.3262061     -7.1996574    
    120700   1.6598084e-06 -2.496405      -3.334775      -5.2922249     -7.1679968    
    120800   1.5432626e-06 -2.496405      -3.2985456     -5.2587407     -7.1368005    
    120900   1.4284891e-06 -2.496405      -3.2630331     -5.2258052     -7.1060818    
    121000   1.315664e-06  -2.496405      -3.2283805     -5.1934999     -7.0758827    
    121100   1.2048854e-06 -2.496405      -3.1947528     -5.1619311     -7.0462713    
    121200   1.0962912e-06 -2.496405      -3.1623282     -5.131225      -7.0173385    
    121300   9.9015423e-07 -2.496405      -3.1312918     -5.1015224     -6.9891937    
    121400   8.8693431e-07 -2.496405      -3.1018302     -5.0729735     -6.9619606    
    121500   7.8727831e-07 -2.496405      -3.0741245     -5.045733      -6.9357726    
    121600   6.9196933e-07 -2.496405      -3.0483436     -5.0199531     -6.9107665    
    121700   6.0183693e-07 -2.496405      -3.0246346     -4.9957767     -6.8870769    
    121800   5.176488e-07  -2.496405      -3.0031141     -4.9733297     -6.864829     
    121900   4.4000853e-07 -2.496405      -2.9838591     -4.9527129     -6.8441324    
    122000   3.6928447e-07 -2.496405      -2.9669011     -4.9339964     -6.825075     
    122100   3.0558672e-07 -2.496405      -2.9522239     -4.9172155     -6.8077187    
    122200   2.4879666e-07 -2.496405      -2.9397654     -4.9023697     -6.7920967    
    122300   1.9863856e-07 -2.496405      -2.9294245     -4.8894244     -6.7782133    
    122400   1.5477279e-07 -2.496405      -2.9210701     -4.8783153     -6.7660448    
    122500   1.1688736e-07 -2.496405      -2.914552      -4.8689541     -6.7555425    
    122600   8.4767552e-08 -2.496405      -2.9097111     -4.8612348     -6.7466364    
    122700   5.8330844e-08 -2.496405      -2.9063889     -4.8550405     -6.7392398    
    122800   3.7621692e-08 -2.496405      -2.9044347     -4.8502491     -6.7332538    
    122900   2.276941e-08  -2.496405      -2.9037107     -4.8467389     -6.728572     
    123000   1.3919764e-08 -2.496405      -2.9040974     -4.8443942     -6.7250864    
    123100   1.1156897e-08 -2.496405      -2.905497      -4.8431104     -6.722692     
    123200   1.4434426e-08 -2.496405      -2.9078379     -4.8427994     -6.7212934    
    123300   2.3532306e-08 -2.496405      -2.9110772     -4.843394      -6.7208092    
    123400   3.8049634e-08 -2.496405      -2.915204      -4.844852      -6.7211772    
    123500   5.7434712e-08 -2.496405      -2.9202387     -4.8471582     -6.7223579    
    123600   8.104449e-08  -2.496405      -2.9262312     -4.8503237     -6.7243353    
    123700   1.082185e-07  -2.496405      -2.9332554     -4.8543837     -6.727117     
    123800   1.3834944e-07 -2.496405      -2.9414012     -4.8593922     -6.7307311    
    123900   1.7093457e-07 -2.496405      -2.950765      -4.8654157     -6.7352218    
    124000   2.0559799e-07 -2.496405      -2.96144       -4.8725254     -6.7406436    
    124100   2.420815e-07  -2.496405      -2.9735067     -4.8807903     -6.7470557    
    124200   2.8020876e-07 -2.496405      -2.987026      -4.8902709     -6.7545156    
    124300   3.1983244e-07 -2.496405      -3.0020343     -4.9010143     -6.7630742    
    124400   3.607772e-07  -2.496405      -3.0185401     -4.9130504     -6.7727715    
    124500   4.0279169e-07 -2.496405      -3.0365237     -4.9263896     -6.7836337    
    124600   4.455211e-07  -2.496405      -3.0559375     -4.9410217     -6.7956705    
    124700   4.8850692e-07 -2.496405      -3.0767063     -4.9569146     -6.8088736    
    124800   5.3121397e-07 -2.496405      -3.09873       -4.9740143     -6.8232159    
    124900   5.7307777e-07 -2.496405      -3.1218854     -4.9922457     -6.838651     
    125000   6.1356053e-07 -2.496405      -3.1460302     -5.0115137     -6.8551137    
    125100   6.5220232e-07 -2.496405      -3.1710074     -5.0317064     -6.8725216    
    125200   6.8865604e-07 -2.496405      -3.196652      -5.0526986     -6.8907775    
    125300   7.2269906e-07 -2.496405      -3.2227982     -5.0743573     -6.9097726    
    125400   7.5422062e-07 -2.496405      -3.2492868     -5.0965475     -6.9293914    
    125500   7.8318933e-07 -2.496405      -3.2759734     -5.1191382     -6.949516     
    125600   8.0960959e-07 -2.496405      -3.3027337     -5.1420082     -6.9700316    
    125700   8.3347733e-07 -2.496405      -3.3294686     -5.1650505     -6.9908306    
    125800   8.5474527e-07 -2.496405      -3.3561056     -5.1881759     -7.011817     
    125900   8.7330511e-07 -2.496405      -3.3825994     -5.211315      -7.0329087    
    126000   8.8899009e-07 -2.496405      -3.4089296     -5.2344187     -7.0540405    
    126100   9.0159676e-07 -2.496405      -3.4350975     -5.2574577     -7.0751641    
    126200   9.1092037e-07 -2.496405      -3.4611228     -5.2804211     -7.0962486    
    126300   9.1679488e-07 -2.496405      -3.4870388     -5.3033141     -7.11728      
    126400   9.191279e-07  -2.496405      -3.5128877     -5.3261551     -7.1382584    
    126500   9.1792216e-07 -2.4966484     -3.5387167     -5.348972      -7.1591967    
    126600   9.1327892e-07 -2.497037      -3.5645719     -5.3717981     -7.1801165    
    126700   9.0538332e-07 -2.4973978     -3.5904941     -5.3946674     -7.2010445    
    126800   8.9447578e-07 -2.4977271     -3.616513      -5.41761       -7.2220082    
    126900   8.8081645e-07 -2.498023      -3.6426429     -5.4406477     -7.2430319    
    127000   8.646509e-07  -2.4986286     -3.6688785     -5.4637896     -7.2641324    
    127100   8.4618428e-07 -2.5020435     -3.6951932     -5.48703       -7.2853159    
    127200   8.2556933e-07 -2.5087636     -3.7215377     -5.5103462     -7.3065759    
    127300   8.0290984e-07 -2.5363387     -3.7478416     -5.5336985     -7.3278916    
    127400   7.7827813e-07 -2.5665035     -3.7740164     -5.5570313     -7.3492285    
    127500   7.5174142e-07 -2.5962089     -3.7999595     -5.5802751     -7.3705385    
    127600   7.2339048e-07 -2.625318      -3.8255589     -5.6033494     -7.3917623    
    127700   6.9336329e-07 -2.6536972     -3.8506986     -5.6261658     -7.412831     
    127800   6.6185807e-07 -2.6812209     -3.8752631     -5.6486314     -7.4336688    
    127900   6.2913253e-07 -2.7077763     -3.8991421     -5.6706521     -7.4541956    
    128000   5.9548974e-07 -2.7332677     -3.9222346     -5.692136      -7.4743296    
    128100   5.6125431e-07 -2.757619      -3.9444519     -5.7129966     -7.4939902    
    128200   5.2674453e-07 -2.780777      -3.9657211     -5.7331562     -7.5131011    
    128300   4.9224681e-07 -2.8027119     -3.9859873     -5.7525481     -7.5315926    
    128400   4.5799796e-07 -2.8234185     -4.0052154     -5.7711201     -7.5494046    
    128500   4.2417854e-07 -2.8429142     -4.0233912     -5.7888355     -7.566489     
    128600   3.9091798e-07 -2.8612367     -4.0405208     -5.8056745     -7.582811     
    128700   3.5830964e-07 -2.8784401     -4.0566291     -5.8216341     -7.5983504    
    128800   3.2643153e-07 -2.8945898     -4.0717569     -5.8367269     -7.6131014    
    128900   2.9536768e-07 -2.9097569     -4.0859568     -5.8509788     -7.6270717    
    129000   2.6522496e-07 -2.9240129     -4.0992888     -5.8644261     -7.6402805    
    129100   2.3614127e-07 -2.9374241     -4.1118147     -5.8771117     -7.6527567    
    129200   2.0828366e-07 -2.9500474     -4.1235938     -5.8890815     -7.6645351    
    129300   1.8183675e-07 -2.9619267     -4.1346788     -5.9003808     -7.6756538    
    129400   1.5698483e-07 -2.9730907     -4.1451122     -5.9110506     -7.6861511    
    129500   1.3389163e-07 -2.9835515     -4.1549242     -5.9211254     -7.6960625    
    129600   1.1268282e-07 -2.9933042     -4.1641311     -5.9306306     -7.7054182    
    129700   9.3434941e-08 -3.0023275     -4.172735      -5.9395812     -7.7142408    
    129800   7.61731e-08   -3.010585      -4.1807235     -5.9479812     -7.7225445    
    129900   6.0877493e-08 -3.018028      -4.1880713     -5.955823      -7.7303336    
    130000   4.7496915e-08 -3.0245981     -4.1947413     -5.9630883     -7.7376024    
    130100   3.5965867e-08 -3.0302312     -4.2006869     -5.9697491     -7.744336     
    130200   2.6221278e-08 -3.0348619     -4.2058553     -5.9757698     -7.7505109    
    130300   1.8215108e-08 -3.038428      -4.2101908     -5.9811091     -7.7560972    
    130400   1.1920187e-08 -3.0408747     -4.2136386     -5.9857234     -7.7610603    
    130500   7.3283034e-09 -3.0421591     -4.2161487     -5.9895692     -7.7653634    
    130600   4.4414186e-09 -3.0422527     -4.2176797     -5.9926065     -7.7689701    
    130700   3.2584785e-09 -3.0411444     -4.2182016     -5.994801      -7.7718465    
    130800   3.7612612e-09 -3.0388408     -4.2176983     -5.9961268     -7.7739637    
    130900   5.9027776e-09 -3.0353668     -4.2161688     -5.9965681     -7.7752995    
    131000   9.6009954e-09 -3.0307641     -4.2136273     -5.9961201     -7.7758399    
    131100   1.4739276e-08 -3.02509       -4.2101035     -5.9947901     -7.7755801    
    131200   2.1173297e-08 -3.0184144     -4.2056403     -5.9925969     -7.7745252    
    131300   2.8742743e-08 -3.010817      -4.2002928     -5.9895707     -7.7726905    
    131400   3.7285053e-08 -3.0023841     -4.1941255     -5.9857521     -7.7701008    
    131500   4.6648167e-08 -2.9932046     -4.18721       -5.9811901     -7.7667902    
    131600   5.6699599e-08 -2.9833664     -4.1796214     -5.9759407     -7.7628005    
    131700   6.7330114e-08 -2.972953      -4.171436      -5.9700642     -7.7581794    
    131800   7.8451585e-08 -2.9620395     -4.1627272     -5.9636227     -7.752979     
    131900   8.9989963e-08 -2.9506905     -4.1535631     -5.9566771     -7.7472531    
    132000   1.0187534e-07 -2.9389573     -4.1440033     -5.9492848     -7.7410548    
    132100   1.1403172e-07 -2.9268772     -4.1340971     -5.9414968     -7.7344346    
    132200   1.2636903e-07 -2.9144729     -4.1238816     -5.9333565     -7.7274379    
    132300   1.3877937e-07 -2.9017536     -4.1133818     -5.924898      -7.7201033    
    132400   1.5113825e-07 -2.8887169     -4.1026103     -5.9161455     -7.7124623    
    132500   1.6331053e-07 -2.8753505     -4.091569      -5.9071138     -7.7045379    
    132600   1.751596e-07  -2.8616358     -4.0802509     -5.8978092     -7.696345     
    132700   1.8655762e-07 -2.8475508     -4.068642      -5.8882301     -7.6878913    
    132800   1.9739451e-07 -2.833073      -4.0567246     -5.8783697     -7.6791779    
    132900   2.0758381e-07 -2.818183      -4.0444794     -5.8682171     -7.6702009    
    133000   2.1706432e-07 -2.802867      -4.0318888     -5.8577599     -7.660953     
    133100   2.2579725e-07 -2.7871192     -4.0189386     -5.8469858     -7.6514251    
    133200   2.3375998e-07 -2.7709442     -4.0056209     -5.8358849     -7.6416083    
    133300   2.4093791e-07 -2.7543578     -3.9919355     -5.8244518     -7.6314954    
    133400   2.4731646e-07 -2.7373885     -3.9778916     -5.8126865     -7.6210829    
    133500   2.528751e-07  -2.7200771     -3.9635087     -5.8005962     -7.6103718    
    133600   2.5758471e-07 -2.7024759     -3.9488169     -5.7881962     -7.5993693    
    133700   2.6140871e-07 -2.6846477     -3.9338566     -5.7755101     -7.588089     
    133800   2.6430756e-07 -2.6666631     -3.9186776     -5.7625695     -7.5765517    
    133900   2.6624544e-07 -2.6485983     -3.9033375     -5.749414      -7.5647851    
    134000   2.6719735e-07 -2.6305318     -3.8878996     -5.7360893     -7.5528231    
    134100   2.6715493e-07 -2.6125417     -3.8724305     -5.7226465     -7.5407055    
    134200   2.6612978e-07 -2.5947024     -3.8569974     -5.7091397     -7.5284761    
    134300   2.6415333e-07 -2.5770822     -3.8416656     -5.6956243     -7.5161819    
    134400   2.6127367e-07 -2.559741      -3.8264962     -5.682155      -7.5038712    
    134500   2.5754986e-07 -2.5427287     -3.8115437     -5.668784      -7.4915921    
    134600   2.5304521e-07 -2.5260841     -3.7968549     -5.6555592     -7.4793907    
    134700   2.4782104e-07 -2.5101163     -3.7824672     -5.6425225     -7.4673098    
    134800   2.4193205e-07 -2.5024732     -3.7684082     -5.629709      -7.4553874    
    134900   2.3542451e-07 -2.4990425     -3.7546956     -5.6171461     -7.4436556    
    135000   2.2833714e-07 -2.4981343     -3.7413376     -5.604853      -7.4321401    
    135100   2.2070456e-07 -2.4978282     -3.7283336     -5.592841      -7.4208593    
    135200   2.1256207e-07 -2.4976408     -3.7156755     -5.5811141     -7.4098251    
    135300   2.039506e-07  -2.4974565     -3.7033498     -5.5696698     -7.3990426    
    135400   1.9492055e-07 -2.4972785     -3.6913392     -5.5585007     -7.3885115    
    135500   1.8553356e-07 -2.4971099     -3.679625      -5.547596      -7.378227     
    135600   1.7586174e-07 -2.4969533     -3.6681893     -5.5369433     -7.3681812    
    135700   1.6598468e-07 -2.4968107     -3.6570171     -5.5265303     -7.3583647    
    135800   1.5598474e-07 -2.4966835     -3.6460981     -5.5163464     -7.348768     
    135900   1.4594187e-07 -2.4965726     -3.6354279     -5.5063842     -7.339383     
    136000   1.3592893e-07 -2.4964779     -3.6250088     -5.4966406     -7.3302041    
    136100   1.2600861e-07 -2.496405      -3.6148508     -5.4871175     -7.3212292    
    136200   1.1623243e-07 -2.496405      -3.6049706     -5.4778224     -7.3124603    
    136300   1.0664185e-07 -2.496405      -3.5953918     -5.4687682     -7.3039042    
    136400   9.7271193e-08 -2.496405      -3.5861436     -5.4599731     -7.2955721    
    136500   8.8151482e-08 -2.496405      -3.5772594     -5.45146       -7.2874799    
    136600   7.9314165e-08 -2.496405      -3.5687758     -5.4432556     -7.2796472    
    136700   7.0793904e-08 -2.496405      -3.5607301     -5.4353894     -7.2720971    
    136800   6.2629711e-08 -2.496405      -3.5531592     -5.427892      -7.2648551    
    136900   5.4864223e-08 -2.496405      -3.5460975     -5.4207943     -7.2579475    
    137000   4.7541323e-08 -2.496405      -3.5395752     -5.4141255     -7.2514011    
    137100   4.0702719e-08 -2.496405      -3.5336165     -5.4079117     -7.2452411    
    137200   3.4384284e-08 -2.496405      -3.528239      -5.4021753     -7.2394906    
    137300   2.8613009e-08 -2.496405      -3.5234524     -5.396933      -7.234169     
    137400   2.3405228e-08 -2.496405      -3.5192584     -5.3921957     -7.2292914    
    137500   1.8766478e-08 -2.496405      -3.5156508     -5.3879679     -7.224868     
    137600   1.4692953e-08 -2.496405      -3.5126158     -5.3842477     -7.2209033    
    137700   1.1174167e-08 -2.496405      -3.5101333     -5.3810269     -7.2173966    
    137800   8.1961852e-09 -2.496405      -3.5081782     -5.378292      -7.2143418    
    137900   5.7446619e-09 -2.496405      -3.5067214     -5.3760248     -7.2117278    
    138000   3.8070318e-09 -2.496405      -3.5057319     -5.3742034     -7.2095397    
    138100   2.3734077e-09 -2.496405      -3.5051782     -5.372804      -7.2077592    
    138200   1.4360711e-09 -2.496405      -3.5050298     -5.3718015     -7.2063659    
    138300   9.8777576e-10 -2.496405      -3.5052588     -5.3711714     -7.2053384    
    138400   1.0193553e-09 -2.496405      -3.5058413     -5.3708905     -7.2046555    
    138500   1.5172679e-09 -2.496405      -3.5067576     -5.3709386     -7.2042973    
    138600   2.4617011e-09 -2.496405      -3.5079937     -5.3712985     -7.2042456    
    138700   3.8257028e-09 -2.496405      -3.5095411     -5.3719576     -7.2044857    
    138800   5.5755496e-09 -2.496405      -3.5113968     -5.3729072     -7.2050058    
    138900   7.6722706e-09 -2.496405      -3.5135627     -5.3741432     -7.2057981    
    139000   1.0073982e-08 -2.496405      -3.516045      -5.3756653     -7.2068582    
    139100   1.2738516e-08 -2.496405      -3.518853      -5.377477      -7.2081853    
    139200   1.5625785e-08 -2.496405      -3.5219978     -5.3795841     -7.2097814    
    139300   1.8699398e-08 -2.496405      -3.5254907     -5.3819942     -7.2116509    
    139400   2.1927248e-08 -2.496405      -3.5293423     -5.3847155     -7.2137993    
    139500   2.5281032e-08 -2.496405      -3.5335609     -5.3877561     -7.2162333    
    139600   2.8734916e-08 -2.496405      -3.5381513     -5.3911222     -7.2189588    
    139700   3.226375e-08  -2.496405      -3.5431138     -5.3948181     -7.2219809    
    139800   3.5841303e-08 -2.496405      -3.5484439     -5.3988445     -7.2253026    
    139900   3.9438994e-08 -2.496405      -3.5541314     -5.4031985     -7.2289243    
    140000   4.302542e-08  -2.496405      -3.5601607     -5.4078728     -7.2328431    
    140100   4.6566802e-08 -2.496405      -3.5665108     -5.4128559     -7.2370527    
    140200   5.0028254e-08 -2.4964394     -3.5731558     -5.4181316     -7.2415427    
    140300   5.3375565e-08 -2.4964823     -3.5800657     -5.4236798     -7.2462992    
    140400   5.657711e-08  -2.4965265     -3.5872076     -5.4294767     -7.2513046    
    140500   5.9605471e-08 -2.4965736     -3.5945464     -5.4354959     -7.2565383    
    140600   6.2438419e-08 -2.4966253     -3.6020466     -5.4417087     -7.2619769    
    140700   6.5059098e-08 -2.4966829     -3.6096732     -5.4480859     -7.2675957    
    140800   6.7455408e-08 -2.4967473     -3.617393      -5.4545981     -7.2733689    
    140900   6.9618777e-08 -2.4968194     -3.625176      -5.4612172     -7.2792704    
    141000   7.154266e-08  -2.4968994     -3.6329955     -5.4679169     -7.2852754    
    141100   7.3221109e-08 -2.4969871     -3.6408296     -5.4746738     -7.2913605    
    141200   7.4647767e-08 -2.497082      -3.6486609     -5.4814676     -7.2975045    
    141300   7.5815488e-08 -2.4971832     -3.6564766     -5.4882819     -7.303689     
    141400   7.6716644e-08 -2.4972893     -3.6642686     -5.4951037     -7.3098988    
    141500   7.7344019e-08 -2.4973989     -3.6720329     -5.5019241     -7.3161219    
    141600   7.7692036e-08 -2.4975102     -3.6797687     -5.5087371     -7.3223495    
    141700   7.7758012e-08 -2.4976215     -3.6874777     -5.5155399     -7.3285756    
    141800   7.7543137e-08 -2.497731      -3.6951633     -5.5223318     -7.3347969    
    141900   7.7052946e-08 -2.4978372     -3.7028292     -5.5291137     -7.3410118    
    142000   7.6297163e-08 -2.4979717     -3.7104788     -5.5358872     -7.3472205    
    142100   7.5288982e-08 -2.4982041     -3.7181139     -5.5426538     -7.3534233    
    142200   7.404392e-08  -2.498423      -3.7257339     -5.5494139     -7.3596209    
    142300   7.2578533e-08 -2.5001357     -3.7333355     -5.5561667     -7.3658131    
    142400   7.0909243e-08 -2.5018175     -3.7409117     -5.562909      -7.3719983    
    142500   6.9051532e-08 -2.5060144     -3.7484519     -5.5696352     -7.3781734    
    142600   6.7019629e-08 -2.5144418     -3.755942      -5.5763367     -7.3843329    
    142700   6.482673e-08  -2.5229606     -3.7633644     -5.5830023     -7.3904692    
    142800   6.2485623e-08 -2.5313383     -3.7706987     -5.589618      -7.3965722    
    142900   6.000954e-08  -2.5395461     -3.7779222     -5.5961672     -7.4026295    
    143000   5.7412994e-08 -2.5475555     -3.7850109     -5.6026316     -7.4086265    
    143100   5.4712372e-08 -2.5553387     -3.7919402     -5.6089915     -7.4145471    
    143200   5.1926137e-08 -2.56287       -3.7986859     -5.6152262     -7.420374     
    143300   4.9074564e-08 -2.5701263     -3.8052252     -5.6213154     -7.4260891    
    143400   4.6179082e-08 -2.5770886     -3.8115373     -5.6272392     -7.4316744    
    143500   4.3261337e-08 -2.5837419     -3.8176044     -5.6329795     -7.4371123    
    143600   4.0342203e-08 -2.5900756     -3.8234119     -5.63852       -7.4423867    
    143700   3.7440923e-08 -2.5960841     -3.8289493     -5.6438472     -7.4474829    
    143800   3.4574564e-08 -2.6017661     -3.8342099     -5.6489504     -7.4523887    
    143900   3.1757867e-08 -2.6071245     -3.839191      -5.6538223     -7.4570944    
    144000   2.9003492e-08 -2.6121657     -3.8438936     -5.6584586     -7.4615928    
    144100   2.632256e-08  -2.6168987     -3.8483219     -5.6628581     -7.4658798    
    144200   2.3725343e-08 -2.6213345     -3.8524827     -5.6670226     -7.4699538    
    144300   2.1221909e-08 -2.6254851     -3.856385      -5.670956      -7.4738156    
    144400   1.8822574e-08 -2.6293623     -3.8600386     -5.6746639     -7.4774682    
    144500   1.6538031e-08 -2.6329771     -3.8634537     -5.6781533     -7.4809161    
    144600   1.437916e-08  -2.636339      -3.8666403     -5.6814317     -7.4841649    
    144700   1.2356542e-08 -2.639455      -3.8696069     -5.6845064     -7.4872207    
    144800   1.0479805e-08 -2.6423295     -3.8723606     -5.6873841     -7.4900897    
    144900   8.7569632e-09 -2.6449639     -3.8749061     -5.6900706     -7.4927776    
    145000   7.1938909e-09 -2.6473567     -3.8772458     -5.6925697     -7.4952891    
    145100   5.7940473e-09 -2.6495033     -3.8793794     -5.6948839     -7.4976277    
    145200   4.5585123e-09 -2.6513971     -3.8813042     -5.6970134     -7.4997954    
    145300   3.4863099e-09 -2.6530291     -3.8830153     -5.6989566     -7.5017926    
    145400   2.574937e-09  -2.6543893     -3.8845057     -5.70071       -7.5036178    
    145500   1.8209754e-09 -2.6554671     -3.8857674     -5.7022686     -7.5052683    
    145600   1.220647e-09  -2.6562522     -3.8867915     -5.7036261     -7.5067397    
    145700   7.7019766e-10 -2.6567355     -3.8875688     -5.7047757     -7.508027     
    145800   4.6603831e-10 -2.6569095     -3.8880912     -5.7057101     -7.5091241    
    145900   3.046338e-10  -2.6567693     -3.8883516     -5.7064225     -7.5100249    
    146000   2.8218847e-10 -2.656313      -3.8883447     -5.7069068     -7.5107236    
    146100   3.9422416e-10 -2.6555418     -3.8880678     -5.7071583     -7.511215     
    146200   6.3516738e-10 -2.6544606     -3.8875207     -5.707174      -7.511495     
    146300   9.9805606e-10 -2.6530775     -3.8867063     -5.706953      -7.5115608    
    146400   1.4744445e-09 -2.6514039     -3.8856302     -5.7064967     -7.5114117    
    146500   2.0545364e-09 -2.649454      -3.8843011     -5.7058088     -7.5110487    
    146600   2.7275226e-09 -2.6472444     -3.8827302     -5.7048953     -7.510475     
    146700   3.4820528e-09 -2.6447932     -3.8809307     -5.7037645     -7.5096957    
    146800   4.3067437e-09 -2.6421196     -3.8789177     -5.7024267     -7.508718     
    146900   5.190622e-09  -2.6392432     -3.8767073     -5.7008934     -7.5075507    
    147000   6.1234174e-09 -2.6361828     -3.8743162     -5.6991774     -7.506204     
    147100   7.0956628e-09 -2.6329564     -3.8717608     -5.6972923     -7.5046891    
    147200   8.0986016e-09 -2.6295804     -3.8690569     -5.6952514     -7.5030178    
    147300   9.1239479e-09 -2.6260688     -3.8662192     -5.6930682     -7.501202     
    147400   1.0163576e-08 -2.6224334     -3.8632604     -5.6907549     -7.4992535    
    147500   1.1209231e-08 -2.6186834     -3.8601917     -5.6883228     -7.4971833    
    147600   1.2252332e-08 -2.6148256     -3.8570219     -5.6857819     -7.4950017    
    147700   1.3283935e-08 -2.6108645     -3.8537576     -5.6831403     -7.4927174    
    147800   1.4294859e-08 -2.6068024     -3.8504034     -5.6804046     -7.490338     
    147900   1.527595e-08  -2.6026402     -3.8469622     -5.6775799     -7.4878697    
    148000   1.6218432e-08 -2.5983777     -3.8434352     -5.6746694     -7.4853172    
    148100   1.7114266e-08 -2.5940144     -3.8398228     -5.6716755     -7.4826838    
    148200   1.7956439e-08 -2.5895498     -3.8361244     -5.6685993     -7.479972     
    148300   1.8739127e-08 -2.5849842     -3.8323395     -5.6654413     -7.4771831    
    148400   1.9457711e-08 -2.580319      -3.8284682     -5.662202      -7.4743179    
    148500   2.0108647e-08 -2.5755574     -3.8245112     -5.6588817     -7.4713772    
    148600   2.0689228e-08 -2.5707046     -3.8204704     -5.6554814     -7.4683616    
    148700   2.119731e-08  -2.5657679     -3.8163497     -5.6520032     -7.4652723    
    148800   2.1631059e-08 -2.560757      -3.8121543     -5.6484498     -7.4621112    
    148900   2.198878e-08  -2.5556836     -3.8078917     -5.6448259     -7.4588811    
    149000   2.2268868e-08 -2.5505615     -3.8035712     -5.6411371     -7.455586     
    149100   2.2469873e-08 -2.5454063     -3.7992039     -5.6373911     -7.4522312    
    149200   2.2590672e-08 -2.5402344     -3.7948024     -5.6335967     -7.4488233    
    149300   2.2630692e-08 -2.5350633     -3.7903805     -5.629764      -7.4453702    
    149400   2.2590124e-08 -2.5299103     -3.7859529     -5.6259043     -7.4418808    
    149500   2.2470078e-08 -2.5247927     -3.7815344     -5.6220297     -7.4383653    
    149600   2.227264e-08  -2.5197267     -3.77714       -5.6181527     -7.4348341    
    149700   2.2000815e-08 -2.514727      -3.7727839     -5.6142857     -7.4312986    
    149800   2.1658364e-08 -2.5098069     -3.7684793     -5.6104411     -7.4277697    
    149900   2.1249575e-08 -2.5051481     -3.7642382     -5.6066303     -7.4242586    
    150000   2.0779014e-08 -2.5018228     -3.7600707     -5.602864      -7.4207756    
    150100   2.0251304e-08 -2.5008828     -3.7559853     -5.5991516     -7.4173303    
    150200   1.9670971e-08 -2.4999371     -3.7519885     -5.595501      -7.4139313    
    150300   1.90424e-08   -2.49899       -3.7480847     -5.5919186     -7.410586     
    150400   1.8369859e-08 -2.4983114     -3.7442769     -5.5884094     -7.4073004    
    150500   1.765762e-08  -2.498195      -3.7405661     -5.5849769     -7.4040792    
    150600   1.6910097e-08 -2.49808       -3.7369522     -5.5816231     -7.4009259    
    150700   1.6131979e-08 -2.4979678     -3.7334343     -5.5783492     -7.3978427    
    150800   1.5328315e-08 -2.4978765     -3.7300105     -5.5751551     -7.3948307    
    150900   1.4504526e-08 -2.4978339     -3.7266793     -5.5720404     -7.3918905    
    151000   1.3666324e-08 -2.4977941     -3.7234388     -5.5690043     -7.3890218    
    151100   1.2819572e-08 -2.4977573     -3.7202881     -5.5660461     -7.3862244    
    151200   1.1970097e-08 -2.497724      -3.7172269     -5.5631653     -7.3834976    
    151300   1.1123496e-08 -2.4976942     -3.7142561     -5.5603619     -7.3808413    
    151400   1.0284976e-08 -2.4976678     -3.7113777     -5.5576369     -7.3782556    
    151500   9.4592573e-09 -2.4976448     -3.7085949     -5.5549917     -7.3757414    
    151600   8.6505501e-09 -2.4976248     -3.7059123     -5.5524291     -7.3733001    
    151700   7.8625987e-09 -2.4976076     -3.7033354     -5.5499527     -7.3709341    
    151800   7.0987824e-09 -2.4975926     -3.7008706     -5.5475667     -7.3686465    
    151900   6.3622345e-09 -2.4975794     -3.6985251     -5.5452765     -7.3664412    
    152000   5.6559522e-09 -2.4975674     -3.6963061     -5.5430878     -7.3643227    
    152100   4.9828647e-09 -2.4975563     -3.694221      -5.5410066     -7.3622962    
    152200   4.345846e-09  -2.4975455     -3.6922768     -5.5390391     -7.360367     
    152300   3.7476656e-09 -2.4975347     -3.6904797     -5.5371911     -7.3585406    
    152400   3.1908925e-09 -2.4975237     -3.6888349     -5.5354683     -7.3568222    
    152500   2.6777727e-09 -2.4975122     -3.6873464     -5.5338753     -7.3552168    
    152600   2.2101107e-09 -2.4975002     -3.6860168     -5.5324159     -7.3537287    
    152700   1.7891807e-09 -2.4974878     -3.684847      -5.5310929     -7.3523615    
    152800   1.4156877e-09 -2.4974752     -3.6838366     -5.5299078     -7.3511177    
    152900   1.0897862e-09 -2.4974626     -3.6829835     -5.5288609     -7.3499989    
    153000   8.1114979e-10 -2.4974503     -3.6822843     -5.5279512     -7.3490055    
    153100   5.7907749e-10 -2.4974388     -3.6817344     -5.5271767     -7.3481369    
    153200   3.9260995e-10 -2.4974285     -3.6813283     -5.5265342     -7.3473915    
    153300   2.5063314e-10 -2.4974197     -3.6810599     -5.5260197     -7.3467665    
    153400   1.5194791e-10 -2.497413      -3.6809225     -5.5256288     -7.3462587    
    153500   9.5294626e-11 -2.4974085     -3.6809096     -5.5253563     -7.3458642    
    153600   7.93327e-11   -2.4974067     -3.681015      -5.5251971     -7.3455786    
    153700   1.0258578e-10 -2.4974077     -3.6812329     -5.5251463     -7.3453974    
    153800   1.6337093e-10 -2.4974116     -3.6815581     -5.5251989     -7.3453161    
    153900   2.5973332e-10 -2.4974185     -3.6819863     -5.5253506     -7.3453305    
    154000   3.8940596e-10 -2.4974281     -3.6825145     -5.5255978     -7.3454367    
    154100   5.4980743e-10 -2.4974403     -3.6831401     -5.5259374     -7.3456313    
    154200   7.3808124e-10 -2.4974548     -3.683862      -5.5263672     -7.3459116    
    154300   9.5117108e-10 -2.4974713     -3.6846794     -5.5268855     -7.3462753    
    154400   1.1859176e-09 -2.4974894     -3.6855925     -5.5274915     -7.3467209    
    154500   1.4391589e-09 -2.4975086     -3.6866018     -5.5281848     -7.3472475    
    154600   1.7078151e-09 -2.4975285     -3.687708      -5.5289654     -7.3478546    
    154700   1.9889448e-09 -2.4975488     -3.6889119     -5.5298337     -7.348542     
    154800   2.2797643e-09 -2.4975691     -3.6902137     -5.53079       -7.34931      
    154900   2.5776323e-09 -2.4975891     -3.6916133     -5.5318343     -7.3501586    
    155000   2.8800097e-09 -2.4976086     -3.6931099     -5.5329665     -7.3510879    
    155100   3.184409e-09  -2.4976274     -3.6947016     -5.5341859     -7.3520977    
    155200   3.488348e-09  -2.4976455     -3.6963855     -5.535491      -7.3531873    
    155300   3.7893253e-09 -2.4976629     -3.6981579     -5.5368796     -7.3543555    
    155400   4.0848219e-09 -2.4976798     -3.7000139     -5.5383489     -7.3556003    
    155500   4.3723341e-09 -2.4976963     -3.7019476     -5.5398949     -7.3569192    
    155600   4.6494297e-09 -2.4977127     -3.7039522     -5.541513      -7.3583089    
    155700   4.9138162e-09 -2.4977293     -3.7060203     -5.5431978     -7.3597652    
    155800   5.1634089e-09 -2.4977462     -3.708144      -5.5449435     -7.3612834    
    155900   5.3963824e-09 -2.4977639     -3.7103153     -5.5467434     -7.3628584    
    156000   5.6111987e-09 -2.4977825     -3.7125258     -5.548591      -7.3644843    
    156100   5.806606e-09  -2.4978022     -3.7147676     -5.5504793     -7.3661552    
    156200   5.9816119e-09 -2.4978233     -3.7170332     -5.5524018     -7.367865     
    156300   6.1354384e-09 -2.4978458     -3.7193157     -5.5543518     -7.3696077    
    156400   6.2674716e-09 -2.4978697     -3.7216089     -5.5563234     -7.3713774    
    156500   6.3772161e-09 -2.497902      -3.7239074     -5.558311      -7.3731686    
    156600   6.4642663e-09 -2.4979684     -3.7262068     -5.5603097     -7.3749761    
    156700   6.5282996e-09 -2.4980369     -3.7285036     -5.5623153     -7.3767956    
    156800   6.5690903e-09 -2.498107      -3.730795      -5.5643243     -7.3786229    
    156900   6.5865407e-09 -2.498178      -3.7330791     -5.5663339     -7.3804548    
    157000   6.5807198e-09 -2.4982494     -3.7353545     -5.5683417     -7.3822885    
    157100   6.5518983e-09 -2.4983202     -3.7376202     -5.5703462     -7.3841218    
    157200   6.5005715e-09 -2.4988238     -3.7398756     -5.5723459     -7.3859531    
    157300   6.4274619e-09 -2.4993825     -3.7421201     -5.5743399     -7.3877809    
    157400   6.3335021e-09 -2.4999287     -3.7443528     -5.5763272     -7.3896041    
    157500   6.219798e-09  -2.5004601     -3.7465726     -5.5783068     -7.3914218    
    157600   6.0875821e-09 -2.5009749     -3.7487781     -5.5802775     -7.393233     
    157700   5.9381631e-09 -2.5014719     -3.7509672     -5.5822379     -7.3950366    
    157800   5.7728833e-09 -2.5027004     -3.7531371     -5.5841863     -7.3968312    
    157900   5.5930896e-09 -2.5050059     -3.7552845     -5.5861201     -7.3986152    
    158000   5.4001218e-09 -2.5073125     -3.7574055     -5.5880368     -7.4003865    
    158100   5.1953179e-09 -2.509693      -3.7594956     -5.589933      -7.4021427    
    158200   4.9800312e-09 -2.5120227     -3.7615498     -5.591805      -7.4038808    
    158300   4.7556523e-09 -2.5142954     -3.7635629     -5.5936487     -7.4055977    
    158400   4.5236287e-09 -2.5165046     -3.7655293     -5.5954597     -7.4072896    
    158500   4.2854733e-09 -2.5186446     -3.7674438     -5.5972335     -7.4089526    
    158600   4.0427604e-09 -2.5207097     -3.769301      -5.5989655     -7.4105827    
    158700   3.7971048e-09 -2.5226954     -3.7710961     -5.6006512     -7.4121759    
    158800   3.5501307e-09 -2.5245974     -3.7728248     -5.6022863     -7.4137279    
    158900   3.3034329e-09 -2.5264128     -3.7744834     -5.603867      -7.415235     
    159000   3.0585393e-09 -2.5281392     -3.7760687     -5.6053898     -7.4166936    
    159100   2.8168801e-09 -2.5297755     -3.7775786     -5.6068519     -7.4181006    
    159200   2.5797694e-09 -2.5313212     -3.7790117     -5.6082509     -7.4194531    
    159300   2.3484008e-09 -2.5327766     -3.7803672     -5.6095852     -7.420749     
    159400   2.1238554e-09 -2.5341429     -3.7816453     -5.6108539     -7.4219867    
    159500   1.9071195e-09 -2.5354215     -3.7828465     -5.6120564     -7.4231652    
    159600   1.6991047e-09 -2.5366144     -3.783972      -5.6131928     -7.4242837    
    159700   1.5006658e-09 -2.5377237     -3.7850234     -5.6142637     -7.4253423    
    159800   1.3126106e-09 -2.5387513     -3.7860024     -5.61527       -7.4263412    
    159900   1.1356995e-09 -2.5396993     -3.7869107     -5.6162126     -7.4272812    
    160000   9.7063419e-10 -2.5405691     -3.78775       -5.617093      -7.4281631    
Loop time of 36.3928 on 1 procs for 60000 steps with 9576 atoms

Performance: 14244578.129 tau/day, 1648.678 timesteps/s, 15.788 Matom-step/s
99.5% CPU use with 1 MPI tasks x 1 OpenMP threads

MPI task timing breakdown:
Section |  min time  |  avg time  |  max time  |%varavg| %total
---------------------------------------------------------------
Pair    | 2.0171     | 2.0171     | 2.0171     |   0.0 |  5.54
Bond    | 29.207     | 29.207     | 29.207     |   0.0 | 80.25
Neigh   | 0.50557    | 0.50557    | 0.50557    |   0.0 |  1.39
Comm    | 0.082808   | 0.082808   | 0.082808   |   0.0 |  0.23
Output  | 0.042219   | 0.042219   | 0.042219   |   0.0 |  0.12
Modify  | 3.8982     | 3.8982     | 3.8982     |   0.0 | 10.71
Other   |            | 0.6401     |            |       |  1.76

Nlocal:           9576 ave        9576 max        9576 min
Histogram: 1 0 0 0 0 0 0 0 0 0
Nghost:              0 ave           0 max           0 min
Histogram: 1 0 0 0 0 0 0 0 0 0
Neighs:          44753 ave       44753 max       44753 min
Histogram: 1 0 0 0 0 0 0 0 0 0

Total # of neighbors = 44753
Ave neighs/atom = 4.6734545
Ave special neighs/atom = 11.492063
Neighbor list builds = 139
Dangerous builds = 0
Total wall time: 0:01:35
