LAMMPS (2 Sep 2026)
  using 1 OpenMP thread(s) per MPI task
# Perform a simple simulation and output the moments of the total energy
# ---------------------------------------------------------------------

# create pure copper system
units metal
lattice fcc 3.75
Lattice spacing in x,y,z = 3.75 3.75 3.75
region box block 0 6 0 6 0 6
create_box 2 box
Created orthogonal box = (0 0 0) to (22.5 22.5 22.5)
  1 by 1 by 1 MPI processor grid

timestep 0.002
create_atoms 1 box
Created 864 atoms
  using lattice units in orthogonal box = (0 0 0) to (22.5 22.5 22.5)
  create_atoms CPU = 0.000 seconds

pair_style eam/alloy
pair_coeff * * AlCu.eam.alloy Cu Al
Reading eam/alloy potential file AlCu.eam.alloy with DATE: 2008-10-01

# Initialize to a high temperature, then cool in npt ensemble
velocity all create 1000.0 6567345 loop geom
fix 1 all npt temp 300.0 300.0 $(500*dt) iso 0.0 0.0 $(100*dt)
fix 1 all npt temp 300.0 300.0 1 iso 0.0 0.0 $(100*dt)
fix 1 all npt temp 300.0 300.0 1 iso 0.0 0.0 0.2000000000000000111

variable toteng equal "etotal"
fix 2 all ave/moments 5 200 100 v_toteng mean stddev variance skew kurtosis

thermo_style custom step temp press etotal f_2[*]

thermo 100
run 10000
Neighbor list info ...
  update: every = 1 steps, delay = 0 steps, check = yes
  max neighbors/atom: 2000, page size: 100000
  master list distance cutoff = 8.6825
  ghost atom cutoff = 8.6825
  binsize = 4.34125, bins = 6 6 6
  1 neighbor lists, perpetual/occasional/extra = 1 0 0
  (1) pair eam/alloy, perpetual
      attributes: half, newton on
      pair build: half/bin/atomonly/newton
      stencil: half/bin/3d
      bin: standard
Per MPI rank memory allocation (min/avg/max) = 3.484 | 3.484 | 3.484 Mbytes
   Step          Temp          Press          TotEng         f_2[1]         f_2[2]         f_2[3]         f_2[4]         f_2[5]    
         0   1000          -107410.22     -2884.9159      0              0              0              0              0            
       100   481.58233     -234.42407     -2928.6835     -2927.2357      1.7117668      2.9301455      2.5199812      6.1396324    
       200   466.201       -382.02173     -2931.4866     -2928.7143      2.0024731      4.0098987      1.3606401      3.3323715    
       300   449.03324     -249.56849     -2934.0358     -2930.0664      2.559874       6.5529549      0.68313412     0.83563243   
       400   495.4798       171.83446     -2936.9414     -2931.4309      3.2760387      10.73243       0.31004412    -0.2333937    
       500   455.52264      137.43944     -2939.9909     -2932.8575      4.1162555      16.94356       0.10634901    -0.69894272   
       600   448.75555     -270.30757     -2943.0807     -2934.3181      4.9987646      24.987647      0.01635093    -0.92239701   
       700   424.03936      84.122124     -2946.0957     -2935.7967      5.8916624      34.711686     -0.019509759   -1.0446897    
       800   442.33652      250.23967     -2948.945      -2937.2721      6.7649603      45.764687     -0.024495135   -1.1213877    
       900   409.24174     -2197.8147     -2951.7542     -2938.7339      7.6100013      57.912119     -0.015585452   -1.1691146    
      1000   377.27071      4927.6212     -2954.4083     -2940.1727      8.4188497      70.877031      0.0014448054  -1.2008968    
      1100   395.85229     -1991.7754     -2956.9864     -2943.0267      8.3735371      70.116123      0.018153851   -1.263516     
      1200   375.77464      775.8544      -2959.4276     -2945.8357      8.3069543      69.00549       0.070920382   -1.2399263    
      1300   368.40069     -583.62304     -2961.7174     -2948.6231      8.1284083      66.071021      0.1127121     -1.2096069    
      1400   366.13645      772.52314     -2963.8761     -2951.3566      7.8519725      61.653472      0.13708195    -1.1971377    
      1500   357.0789      -728.06516     -2965.8999     -2953.9953      7.5325469      56.739263      0.15598581    -1.1894635    
      1600   339.21414      1543.6561     -2967.7983     -2956.5238      7.1851468      51.626334      0.17154103    -1.1876699    
      1700   329.92451     -2616.8266     -2969.538      -2958.9278      6.8235415      46.560719      0.19044936    -1.1817469    
      1800   320.29736      751.8632      -2971.2059     -2961.2061      6.4493726      41.594407      0.21013931    -1.1693456    
      1900   325.55399      200.34284     -2972.7112     -2963.3624      6.0735669      36.888215      0.22489648    -1.1518597    
      2000   315.41438     -430.68376     -2974.1047     -2965.3955      5.6906275      32.383241      0.23186991    -1.1464747    
      2100   317.99068      526.68679     -2975.373      -2967.2969      5.317546       28.276296      0.23982068    -1.1442672    
      2200   309.79875     -681.18739     -2976.5186     -2969.0674      4.9509753      24.512156      0.25222567    -1.1419858    
      2300   295.1209       1503.7417     -2977.5578     -2970.7101      4.5907919      21.07537       0.26852408    -1.1382298    
      2400   297.66255     -4431.6951     -2978.4036     -2972.2277      4.2339199      17.926077      0.28827299    -1.1352233    
      2500   303.19155      6535.1157     -2979.1718     -2973.6166      3.8770536      15.031544      0.31810415    -1.1271308    
      2600   297.72427     -2810.2766     -2979.8878     -2974.8847      3.5280762      12.447322      0.35279128    -1.0991974    
      2700   284.45194      1362.7246     -2980.4572     -2976.0347      3.1794675      10.109013      0.38947906    -1.0614665    
      2800   288.85087     -843.27002     -2980.8599     -2977.0638      2.8243861      7.977157       0.42698111    -1.0386843    
      2900   276.09609      757.55533     -2981.1286     -2977.9667      2.4745514      6.1234046      0.4797496     -1.0044705    
      3000   281.13527     -1414.3261     -2981.2448     -2978.742       2.1240399      4.5115453      0.55707978    -0.94622725   
      3100   288.49281      2094.887      -2981.2475     -2979.3889      1.7732826      3.1445312      0.66968118    -0.83343357   
      3200   275.16422     -1897.9689     -2981.0785     -2979.9041      1.4184958      2.0121304      0.82643866    -0.63036813   
      3300   294.8313       372.83634     -2980.7918     -2980.2887      1.0735664      1.1525447      1.0262375     -0.25637614   
      3400   283.43434      95.641715     -2980.3633     -2980.5423      0.76188104     0.58046271     1.1816607      0.32547201   
      3500   290.31976     -283.15437     -2979.828      -2980.6672      0.54053175     0.29217457     0.78498819    -0.38838222   
      3600   292.26922      674.12941     -2979.2143     -2980.6595      0.55549191     0.30857126     0.83854863    -0.2835102    
      3700   297.30328     -1428.7625     -2978.5343     -2980.5249      0.77194541     0.59589971     1.0778719     -0.021119207  
      3800   292.03978      3590.0144     -2977.8319     -2980.2747      1.0439619      1.0898564      0.88502912    -0.57032402   
      3900   298.32929     -5105.3806     -2977.0871     -2979.9179      1.3080344      1.710954       0.6587072     -0.93389397   
      4000   304.71518      3106.0093     -2976.5096     -2979.4769      1.5266836      2.3307627      0.45187998    -1.1707587    
      4100   299.87803     -1785.2579     -2975.893      -2978.9695      1.6868925      2.8456063      0.27666957    -1.2956859    
      4200   313.34646      1316.0917     -2975.3642     -2978.4172      1.7882617      3.1978799      0.12180387    -1.3413283    
      4300   317.60684     -1490.4055     -2974.905      -2977.8377      1.8229674      3.3232103     -0.016180312   -1.3369308    
      4400   307.79639      2208.3348     -2974.5586     -2977.2525      1.7903806      3.2054628     -0.14126839    -1.3023033    
      4500   304.97649     -3319.9164     -2974.2716     -2976.6834      1.6992363      2.887404      -0.25926128    -1.2411789    
      4600   305.75338      2052.39       -2974.183      -2976.1522      1.5553871      2.419229      -0.38253264    -1.1557128    
      4700   313.95162     -651.47586     -2974.165      -2975.6805      1.3632565      1.8584683     -0.52476946    -1.0387788    
      4800   312.46182     -73.430207     -2974.2888     -2975.2849      1.1351194      1.288496      -0.69328307    -0.86836998   
      4900   309.23988      298.76422     -2974.5257     -2974.9794      0.8936305      0.79857547    -0.91089775    -0.5060435    
      5000   320.47898     -861.63318     -2974.8581     -2974.7691      0.65428249     0.42808558    -1.0778151      0.030783979  
      5100   304.49834      1992.1462     -2975.303      -2974.6595      0.47267485     0.22342151    -0.76788968    -0.41712327   
      5200   299.56359     -4217.3558     -2975.7599     -2974.6521      0.45749272     0.20929959    -0.68048632    -0.64172882   
      5300   301.16723      3757.5258     -2976.3385     -2974.7461      0.61587417     0.37930099    -1.0269927     -0.066823814  
      5400   301.85511     -2303.093      -2976.9012     -2974.9385      0.83979146     0.70524969    -0.89498758    -0.53003577   
      5500   308.27018      1725.9216     -2977.4581     -2975.2188      1.0551881      1.1134219     -0.65712866    -0.9462099    
      5600   292.42535     -1706.185      -2977.9869     -2975.5738      1.2357235      1.5270126     -0.45213054    -1.1679696    
      5700   293.25951      2748.2104     -2978.4658     -2975.984       1.3685196      1.8728458     -0.27513242    -1.2902222    
      5800   292.3536      -4756.488      -2978.8234     -2976.4301      1.4450781      2.0882508     -0.11463068    -1.34881      
      5900   300.25258      3490.4692     -2979.2297     -2976.8964      1.4661521      2.149602       0.026472795   -1.3501901    
      6000   285.54188     -1937.5327     -2979.5133     -2977.3654      1.4361358      2.0624861      0.15520413    -1.309119     
      6100   289.83824      1281.5543     -2979.7192     -2977.8188      1.3587177      1.8461137      0.28388882    -1.2310784    
      6200   298.61549     -701.9328      -2979.8212     -2978.2416      1.2354324      1.5262932      0.41219342    -1.1309718    
      6300   286.38103      229.62874     -2979.8301     -2978.6172      1.0749236      1.1554607      0.54867339    -1.0136429    
      6400   289.83921      413.75823     -2979.7603     -2978.9311      0.89341756     0.79819494     0.72015175    -0.80993885   
      6500   289.46813     -1995.4528     -2979.5597     -2979.1726      0.69592211     0.48430759     0.92284806    -0.46020993   
      6600   286.56395      1303.0969     -2979.3131     -2979.3393      0.50627931     0.25631874     1.0758584      0.00049786601
      6700   293.02092     -1329.0056     -2978.9647     -2979.4281      0.36319186     0.13190832     0.8170786     -0.30220032   
      6800   291.34572      1657.1461     -2978.5726     -2979.4369      0.34573659     0.11953379     0.70046013    -0.57397634   
      6900   290.95976     -3384.28       -2978.0944     -2979.3645      0.47157354     0.22238161     1.0912436      0.12510469   
      7000   300.30569      6671.3094     -2977.5814     -2979.2107      0.65720513     0.43191859     0.97219683    -0.33905569   
      7100   296.62482     -4174.3732     -2977.1358     -2978.9864      0.83819486     0.70257063     0.72559916    -0.83782534   
      7200   312.39989      3142.8825     -2976.7033     -2978.7023      0.99342977     0.9869027      0.50913265    -1.1185485    
      7300   300.11675     -2712.0819     -2976.2578     -2978.3683      1.116914       1.2474969      0.33440046    -1.2568324    
      7400   300.3159       2329.2441     -2975.8863     -2977.9967      1.2009736      1.4423376      0.18803448    -1.3242502    
      7500   304.19256     -2927.6645     -2975.5247     -2977.6041      1.2484581      1.5586476      0.049298      -1.3334678    
      7600   308.26042      3189.4621     -2975.2684     -2977.199       1.2523702      1.5684311     -0.074168911   -1.3028194    
      7700   317.01324     -927.61471     -2975.0936     -2976.8003      1.2058607      1.4541        -0.19811199    -1.2676697    
      7800   321.41458      417.41128     -2974.9942     -2976.4267      1.1138763      1.2407205     -0.33433312    -1.2116216    
      7900   322.46001      328.52605     -2974.9832     -2976.0905      0.98537966     0.97097308    -0.48260672    -1.1264846    
      8000   313.18984     -842.99986     -2975.0543     -2975.8068      0.83389495     0.69538079    -0.67630981    -0.93064675   
      8100   304.28835      3089.7071     -2975.2155     -2975.5808      0.66419439     0.44115419    -0.91777237    -0.52503333   
      8200   304.87371     -4613.2672     -2975.413      -2975.4161      0.48905974     0.23917943    -1.1374474      0.053970489  
      8300   297.88209      2008.6489     -2975.786      -2975.3302      0.34884449     0.12169248    -0.93637602    -0.16557839   
      8400   307.67192     -2393.3524     -2976.1452     -2975.3215      0.33091402     0.10950409    -0.81193577    -0.50843461   
      8500   311.7681       3126.3395     -2976.5588     -2975.3895      0.4493508      0.20191614    -1.1295268      0.085617612  
      8600   308.79467     -4211.6895     -2976.9401     -2975.5311      0.61393088     0.37691112    -0.93859836    -0.5138892    
      8700   304.92534      4682.6332     -2977.3901     -2975.7359      0.77449284     0.59983916    -0.68457613    -0.94799312   
      8800   302.67649     -2231.6621     -2977.8192     -2975.9962      0.91841015     0.8434772     -0.47779058    -1.1547708    
      8900   297.91018      1176.1269     -2978.2247     -2976.3027      1.031823       1.0646588     -0.30369605    -1.260427     
      9000   291.79768     -837.32564     -2978.555      -2976.6419      1.1066389      1.2246496     -0.14731475    -1.3064663    
      9100   305.67998      1115.1538     -2978.8422     -2977           1.1357276      1.2898772     -0.002228213   -1.3103295    
      9200   286.04591     -823.77175     -2979.0666     -2977.3672      1.1140369      1.2410783      0.10777851    -1.3189017    
      9300   292.80935     -0.87110341    -2979.2192     -2977.7188      1.0598775      1.1233404      0.23549309    -1.2871654    
      9400   291.94997      586.58911     -2979.3071     -2978.0469      0.9738444      0.94837292     0.37521255    -1.2068055    
      9500   302.06467     -953.09364     -2979.3182     -2978.341       0.85931816     0.7384277      0.53550058    -1.0594522    
      9600   295.11248      1189.5894     -2979.2558     -2978.592       0.72096552     0.51979129     0.72633753    -0.80473098   
      9700   287.44504     -1475.5572     -2979.1199     -2978.7913      0.56451299     0.31867492     0.93797521    -0.42596659   
      9800   280.03295      1769.0645     -2978.9305     -2978.9308      0.40983606     0.16796559     1.114454       0.091876392  
      9900   299.57253     -3672.0319     -2978.6106     -2979.0043      0.29041571     0.084341285    0.85752871    -0.23017692   
     10000   296.13247      5732.6352     -2978.2783     -2979.0098      0.27948101     0.078109636    0.7708206     -0.43560752   
Loop time of 14.8969 on 1 procs for 10000 steps with 864 atoms

Performance: 115.997 ns/day, 0.207 hours/ns, 671.281 timesteps/s, 579.987 katom-step/s
99.6% CPU use with 1 MPI tasks x 1 OpenMP threads

MPI task timing breakdown:
Section |  min time  |  avg time  |  max time  |%varavg| %total
---------------------------------------------------------------
Pair    | 14.636     | 14.636     | 14.636     |   0.0 | 98.25
Neigh   | 0.0014897  | 0.0014897  | 0.0014897  |   0.0 |  0.01
Comm    | 0.074915   | 0.074915   | 0.074915   |   0.0 |  0.50
Output  | 0.0011194  | 0.0011194  | 0.0011194  |   0.0 |  0.01
Modify  | 0.16593    | 0.16593    | 0.16593    |   0.0 |  1.11
Other   |            | 0.01726    |            |       |  0.12

Nlocal:            864 ave         864 max         864 min
Histogram: 1 0 0 0 0 0 0 0 0 0
Nghost:           3767 ave        3767 max        3767 min
Histogram: 1 0 0 0 0 0 0 0 0 0
Neighs:          96729 ave       96729 max       96729 min
Histogram: 1 0 0 0 0 0 0 0 0 0

Total # of neighbors = 96729
Ave neighs/atom = 111.95486
Neighbor list builds = 1
Dangerous builds = 0

Total wall time: 0:00:14
