LAMMPS (2 Sep 2026)
  using 1 OpenMP thread(s) per MPI task
# Detect convergence in a simulation using the relative change in
# moments. This demonstrates the "history" option.
# ---------------------------------------------------------------------

# create pure copper system
units metal
lattice fcc 3.75
Lattice spacing in x,y,z = 3.75 3.75 3.75
region box block 0 6 0 6 0 6
create_box 2 box
Created orthogonal box = (0 0 0) to (22.5 22.5 22.5)
  1 by 1 by 1 MPI processor grid

timestep 0.002
create_atoms 1 box
Created 864 atoms
  using lattice units in orthogonal box = (0 0 0) to (22.5 22.5 22.5)
  create_atoms CPU = 0.000 seconds

pair_style eam/alloy
pair_coeff * * AlCu.eam.alloy Cu Al
Reading eam/alloy potential file AlCu.eam.alloy with DATE: 2008-10-01

# Initialize to a high temperature, then cool in npt ensemble
velocity all create 1000.0 6567345 loop geom
fix 1 all npt temp 300.0 300.0 $(500*dt) iso 0.0 0.0 $(100*dt)
fix 1 all npt temp 300.0 300.0 1 iso 0.0 0.0 $(100*dt)
fix 1 all npt temp 300.0 300.0 1 iso 0.0 0.0 0.2000000000000000111

# compute mean and stddev over the preceding 5000 steps, every 20 steps
variable toteng equal "etotal"
fix 2 all ave/moments 10 500 200 v_toteng mean stddev history 5

# Convergence criterion: stddev is smaller than threshold and was previously larger
# This avoids issues with system oscillations in the order of the averaging window
# that would otherwise lead to "nodes" in the stddev.
variable conv equal "(f_2[2] < 2.0) && (f_2[2][1] < f_2[2][5])"
fix 3 all halt 100 v_conv == 1

thermo_style custom step temp press etotal f_2[*][1] f_2[*][5] v_conv

thermo 100
run 10000
Neighbor list info ...
  update: every = 1 steps, delay = 0 steps, check = yes
  max neighbors/atom: 2000, page size: 100000
  master list distance cutoff = 8.6825
  ghost atom cutoff = 8.6825
  binsize = 4.34125, bins = 6 6 6
  1 neighbor lists, perpetual/occasional/extra = 1 0 0
  (1) pair eam/alloy, perpetual
      attributes: half, newton on
      pair build: half/bin/atomonly/newton
      stencil: half/bin/3d
      bin: standard
Per MPI rank memory allocation (min/avg/max) = 3.484 | 3.484 | 3.484 Mbytes
   Step          Temp          Press          TotEng       f_2[1][1]      f_2[2][1]      f_2[1][5]      f_2[2][5]        v_conv    
         0   1000          -107410.22     -2884.9159      0              0              0              0              0            
       100   481.58233     -234.42407     -2928.6835      0              0              0              0              0            
       200   466.201       -382.02173     -2931.4866     -2928.7013      2.1834071      0              0              0            
       300   449.03324     -249.56849     -2934.0358     -2928.7013      2.1834071      0              0              0            
       400   495.4798       171.83446     -2936.9414     -2931.4586      3.3797828      0              0              0            
       500   455.52264      137.43944     -2939.9909     -2931.4586      3.3797828      0              0              0            
       600   448.75555     -270.30757     -2943.0807     -2934.3622      5.0749408      0              0              0            
       700   424.03936      84.122124     -2946.0957     -2934.3622      5.0749408      0              0              0            
       800   442.33652      250.23967     -2948.945      -2937.3235      6.8261773      0              0              0            
       900   409.24174     -2197.8147     -2951.7542     -2937.3235      6.8261773      0              0              0            
      1000   377.27071      4927.6212     -2954.4083     -2940.226       8.4678858     -2928.7013      2.1834071      0            
      1100   395.85229     -1991.7754     -2956.9864     -2940.226       8.4678858     -2928.7013      2.1834071      0            
      1200   375.77464      775.8544      -2959.4276     -2943.0379      9.9932449     -2931.4586      3.3797828      0            
      1300   368.40069     -583.62304     -2961.7174     -2943.0379      9.9932449     -2931.4586      3.3797828      0            
      1400   366.13645      772.52314     -2963.8761     -2945.7193      11.365738     -2934.3622      5.0749408      0            
      1500   357.0789      -728.06516     -2965.8999     -2945.7193      11.365738     -2934.3622      5.0749408      0            
      1600   339.21414      1543.6561     -2967.7983     -2948.2516      12.580283     -2937.3235      6.8261773      0            
      1700   329.92451     -2616.8266     -2969.538      -2948.2516      12.580283     -2937.3235      6.8261773      0            
      1800   320.29736      751.8632      -2971.2059     -2950.6222      13.634321     -2940.226       8.4678858      0            
      1900   325.55399      200.34284     -2972.7112     -2950.6222      13.634321     -2940.226       8.4678858      0            
      2000   315.41438     -430.68376     -2974.1047     -2952.8358      14.546549     -2943.0379      9.9932449      0            
      2100   317.99068      526.68679     -2975.373      -2952.8358      14.546549     -2943.0379      9.9932449      0            
      2200   309.79875     -681.18739     -2976.5186     -2954.8888      15.31866      -2945.7193      11.365738      0            
      2300   295.1209       1503.7417     -2977.5578     -2954.8888      15.31866      -2945.7193      11.365738      0            
      2400   297.66255     -4431.6951     -2978.4036     -2956.7793      15.954004     -2948.2516      12.580283      0            
      2500   303.19155      6535.1157     -2979.1718     -2956.7793      15.954004     -2948.2516      12.580283      0            
      2600   297.72427     -2810.2766     -2979.8878     -2958.5066      16.456949     -2950.6222      13.634321      0            
      2700   284.45194      1362.7246     -2980.4572     -2958.5066      16.456949     -2950.6222      13.634321      0            
      2800   288.85087     -843.27002     -2980.8599     -2960.0743      16.836961     -2952.8358      14.546549      0            
      2900   276.09609      757.55533     -2981.1286     -2960.0743      16.836961     -2952.8358      14.546549      0            
      3000   281.13527     -1414.3261     -2981.2448     -2961.4772      17.092926     -2954.8888      15.31866       0            
      3100   288.49281      2094.887      -2981.2475     -2961.4772      17.092926     -2954.8888      15.31866       0            
      3200   275.16422     -1897.9689     -2981.0785     -2962.7097      17.225283     -2956.7793      15.954004      0            
      3300   294.8313       372.83634     -2980.7918     -2962.7097      17.225283     -2956.7793      15.954004      0            
      3400   283.43434      95.641715     -2980.3633     -2963.77        17.240867     -2958.5066      16.456949      0            
      3500   290.31976     -283.15437     -2979.828      -2963.77        17.240867     -2958.5066      16.456949      0            
      3600   292.26922      674.12941     -2979.2143     -2964.6597      17.151937     -2960.0743      16.836961      0            
      3700   297.30328     -1428.7625     -2978.5343     -2964.6597      17.151937     -2960.0743      16.836961      0            
      3800   292.03978      3590.0144     -2977.8319     -2965.388       16.977816     -2961.4772      17.092926      0            
      3900   298.32929     -5105.3806     -2977.0871     -2965.388       16.977816     -2961.4772      17.092926      0            
      4000   304.71518      3106.0093     -2976.5096     -2965.9741      16.74359      -2962.7097      17.225283      0            
      4100   299.87803     -1785.2579     -2975.893      -2965.9741      16.74359      -2962.7097      17.225283      0            
      4200   313.34646      1316.0917     -2975.3642     -2966.4461      16.475369     -2963.77        17.240867      0            
      4300   317.60684     -1490.4055     -2974.905      -2966.4461      16.475369     -2963.77        17.240867      0            
      4400   307.79639      2208.3348     -2974.5586     -2966.8309      16.192303     -2964.6597      17.151937      0            
      4500   304.97649     -3319.9164     -2974.2716     -2966.8309      16.192303     -2964.6597      17.151937      0            
      4600   305.75338      2052.39       -2974.183      -2967.1554      15.908747     -2965.388       16.977816      0            
      4700   313.95162     -651.47586     -2974.165      -2967.1554      15.908747     -2965.388       16.977816      0            
      4800   312.46182     -73.430207     -2974.2888     -2967.4481      15.636353     -2965.9741      16.74359       0            
      4900   309.23988      298.76422     -2974.5257     -2967.4481      15.636353     -2965.9741      16.74359       0            
      5000   320.47898     -861.63318     -2974.8581     -2967.7323      15.383076     -2966.4461      16.475369      0            
      5100   304.49834      1992.1462     -2975.303      -2967.7323      15.383076     -2966.4461      16.475369      0            
      5200   299.56359     -4217.3558     -2975.7599     -2969.5972      13.199493     -2966.8309      16.192303      0            
      5300   301.16723      3757.5258     -2976.3385     -2969.5972      13.199493     -2966.8309      16.192303      0            
      5400   301.85511     -2303.093      -2976.9012     -2971.2834      11.08806      -2967.1554      15.908747      0            
      5500   308.27018      1725.9216     -2977.4581     -2971.2834      11.08806      -2967.1554      15.908747      0            
      5600   292.42535     -1706.185      -2977.9869     -2972.7761      9.1287124     -2967.4481      15.636353      0            
      5700   293.25951      2748.2104     -2978.4658     -2972.7761      9.1287124     -2967.4481      15.636353      0            
      5800   292.3536      -4756.488      -2978.8234     -2974.0668      7.3865744     -2967.7323      15.383076      0            
      5900   300.25258      3490.4692     -2979.2297     -2974.0668      7.3865744     -2967.7323      15.383076      0            
      6000   285.54188     -1937.5327     -2979.5133     -2975.1625      5.87574       -2969.5972      13.199493      0            
      6100   289.83824      1281.5543     -2979.7192     -2975.1625      5.87574       -2969.5972      13.199493      0            
      6200   298.61549     -701.9328      -2979.8212     -2976.0666      4.6225313     -2971.2834      11.08806       0            
      6300   286.38103      229.62874     -2979.8301     -2976.0666      4.6225313     -2971.2834      11.08806       0            
      6400   289.83921      413.75823     -2979.7603     -2976.7863      3.6322202     -2972.7761      9.1287124      0            
      6500   289.46813     -1995.4528     -2979.5597     -2976.7863      3.6322202     -2972.7761      9.1287124      0            
      6600   286.56395      1303.0969     -2979.3131     -2977.3275      2.909407      -2974.0668      7.3865744      0            
      6700   293.02092     -1329.0056     -2978.9647     -2977.3275      2.909407      -2974.0668      7.3865744      0            
      6800   291.34572      1657.1461     -2978.5726     -2977.7017      2.4476939     -2975.1625      5.87574        0            
      6900   290.95976     -3384.28       -2978.0944     -2977.7017      2.4476939     -2975.1625      5.87574        0            
      7000   300.30569      6671.3094     -2977.5814     -2977.9144      2.224138      -2976.0666      4.6225313      0            
      7100   296.62482     -4174.3732     -2977.1358     -2977.9144      2.224138      -2976.0666      4.6225313      0            
      7200   312.39989      3142.8825     -2976.7033     -2977.9835      2.1679021     -2976.7863      3.6322202      0            
      7300   300.11675     -2712.0819     -2976.2578     -2977.9835      2.1679021     -2976.7863      3.6322202      0            
      7400   300.3159       2329.2441     -2975.8863     -2977.931       2.1907197     -2977.3275      2.909407       0            
      7500   304.19256     -2927.6645     -2975.5247     -2977.931       2.1907197     -2977.3275      2.909407       0            
      7600   308.26042      3189.4621     -2975.2684     -2977.7825      2.2216333     -2977.7017      2.4476939      0            
      7700   317.01324     -927.61471     -2975.0936     -2977.7825      2.2216333     -2977.7017      2.4476939      0            
      7800   321.41458      417.41128     -2974.9942     -2977.5676      2.2120935     -2977.9144      2.224138       0            
      7900   322.46001      328.52605     -2974.9832     -2977.5676      2.2120935     -2977.9144      2.224138       0            
      8000   313.18984     -842.99986     -2975.0543     -2977.3226      2.1432282     -2977.9835      2.1679021      0            
      8100   304.28835      3089.7071     -2975.2155     -2977.3226      2.1432282     -2977.9835      2.1679021      0            
      8200   304.87371     -4613.2672     -2975.413      -2977.0827      2.0283967     -2977.931       2.1907197      0            
      8300   297.88209      2008.6489     -2975.786      -2977.0827      2.0283967     -2977.931       2.1907197      0            
Fix halt condition for fix-id 3 met on step 8400 with value 1
      8400   307.67192     -2393.3524     -2976.1452     -2976.8857      1.8989108     -2977.7825      2.2216333      1            
Loop time of 12.4173 on 1 procs for 8400 steps with 864 atoms

Performance: 116.895 ns/day, 0.205 hours/ns, 676.474 timesteps/s, 584.473 katom-step/s
99.6% CPU use with 1 MPI tasks x 1 OpenMP threads

MPI task timing breakdown:
Section |  min time  |  avg time  |  max time  |%varavg| %total
---------------------------------------------------------------
Pair    | 12.202     | 12.202     | 12.202     |   0.0 | 98.26
Neigh   | 0.001485   | 0.001485   | 0.001485   |   0.0 |  0.01
Comm    | 0.062358   | 0.062358   | 0.062358   |   0.0 |  0.50
Output  | 0.0010067  | 0.0010067  | 0.0010067  |   0.0 |  0.01
Modify  | 0.13611    | 0.13611    | 0.13611    |   0.0 |  1.10
Other   |            | 0.01462    |            |       |  0.12

Nlocal:            864 ave         864 max         864 min
Histogram: 1 0 0 0 0 0 0 0 0 0
Nghost:           3767 ave        3767 max        3767 min
Histogram: 1 0 0 0 0 0 0 0 0 0
Neighs:          96729 ave       96729 max       96729 min
Histogram: 1 0 0 0 0 0 0 0 0 0

Total # of neighbors = 96729
Ave neighs/atom = 111.95486
Neighbor list builds = 1
Dangerous builds = 0

Total wall time: 0:00:12
