boundary p p p # finite field, fully periodic
kspace_style ewald/electrode 1.0e-7

include "settings.mod" # styles, computes, groups and fixes

# constant potential electrodes with ramping potential difference
fix conp bot electrode/conp 0 1.979 couple top v_v symm on ffield yes

thermo 1
# thermo: step, imposed potential, bottom charge, top charge, theory charge, percent deviation
thermo_style custom step v_v c_qbot c_qtop v_qtheory v_percdev

run 10
