Title "LAMMPS wrapping of PWDFT"

memory 1900 mb

FILEINSERT

echo

GEOMINSERT

nwpw
  2d-hcurve
  initialize_wavefunction on
  cutoff 50.0
  mult 1
  xc pbe96
end

task pspw gradient
