Title "LAMMPS wrapping of PWDFT"

memory 1900 mb

echo

GEOMINSERT

nwpw
  xc pbe
  cutoff 30.0
  2d-hcurve
  tolerances 1.0e-9 1.0-9
  apc on
end

task pspw gradient
