variable	sname index ch4_ionized
log		${sname}.min.log

units 		electron
newton		on
boundary        f f f

atom_style	hybrid charge electron

read_data  	data.${sname}

pair_style      eff/cut 100.0
pair_coeff	* *

communicate	single vel yes	

thermo		1
thermo_style	multi

dump		1 all custom 1 ${sname}.min.lammpstrj id type x y z spin radius
dump            2 all xyz 1 ${sname}.min.xyz

min_style       cg
min_modify	line quadratic 
minimize        0 1.0e-6 10000 100000

