# created by fftool

units real
boundary p p p

atom_style full
bond_style harmonic
angle_style harmonic
dihedral_style opls
special_bonds lj/coul 0.0 0.0 0.5

read_data data.1.lmp
# read_restart restart.*.lmp
# reset_timestep 0

pair_style hybrid lj/cut/coul/long 10.0 10.0 &
  lj/cut/coul/long/soft 1 0.5 10.0 10.0 10.0
pair_modify tail no
kspace_style pppm 1.0e-5

# use pair soft for atoms that may overlap
# zero epsilon between appearing and desappearing sites: 2-5 3-5
pair_coeff    1    1 lj/cut/coul/long     0.065999     3.500000  # CO-C CO-C
pair_coeff    1    2 lj/cut/coul/long     0.065999     3.500000  # CO-C CD-
pair_coeff    1    3 lj/cut/coul/long     0.044497     2.958040  # CO-C HD-
pair_coeff    1    4 lj/cut/coul/long     0.044497     2.958040  # CO-C H1-H
pair_coeff    1    5 lj/cut/coul/long     0.105924     3.304542  # CO-C OH-D
pair_coeff    1    6 lj/cut/coul/long     0.000000     1.870829  # CO-C HO-D
pair_coeff    1    7 lj/cut/coul/long     0.000000     1.870829  # CO-C Hw
pair_coeff    1    8 lj/cut/coul/long     0.101281     3.328551  # CO-C Ow
pair_coeff    2    2 lj/cut/coul/long     0.065999     3.500000  # CD- CD-
pair_coeff    2    3 lj/cut/coul/long     0.044497     2.958040  # CD- HD-
pair_coeff    2    4 lj/cut/coul/long     0.044497     2.958040  # CD- H1-H
pair_coeff    2    5 lj/cut/coul/long     0.000000     3.304542  # CD- OH-D
pair_coeff    2    6 lj/cut/coul/long     0.000000     1.870829  # CD- HO-D
pair_coeff    2    7 lj/cut/coul/long/soft     0.000000     1.870829  0.0  # CD- Hw
pair_coeff    2    8 lj/cut/coul/long/soft     0.101281     3.328551  0.0  # CD- Ow
pair_coeff    3    3 lj/cut/coul/long     0.030000     2.500000  # HD- HD-
pair_coeff    3    4 lj/cut/coul/long/soft     0.030000     2.500000  0.0  # HD- H1-H
pair_coeff    3    5 lj/cut/coul/long     0.000000     2.792848  # HD- OH-D
pair_coeff    3    6 lj/cut/coul/long     0.000000     1.581139  # HD- HO-D
pair_coeff    3    7 lj/cut/coul/long/soft     0.000000     1.581139  0.0  # HD- Hw
pair_coeff    3    8 lj/cut/coul/long/soft     0.068284     2.813139  0.0  # HD- Ow
pair_coeff    4    4 lj/cut/coul/long     0.030000     2.500000  # H1-H H1-H
pair_coeff    4    5 lj/cut/coul/long     0.071414     2.792848  # H1-H OH-D
pair_coeff    4    6 lj/cut/coul/long/soft     0.000000     1.581139  1.0  # H1-H HO-D
pair_coeff    4    7 lj/cut/coul/long     0.000000     1.581139  # H1-H Hw
pair_coeff    4    8 lj/cut/coul/long     0.068284     2.813139  # H1-H Ow
pair_coeff    5    5 lj/cut/coul/long     0.170000     3.120000  # OH-D OH-D
pair_coeff    5    6 lj/cut/coul/long     0.000000     1.766352  # OH-D HO-D
pair_coeff    5    7 lj/cut/coul/long/soft     0.000000     1.766352  1.0  # OH-D Hw
pair_coeff    5    8 lj/cut/coul/long/soft     0.162549     3.142668  1.0  # OH-D Ow
pair_coeff    6    6 lj/cut/coul/long     0.000000     1.000000  # HO-D HO-D
pair_coeff    6    7 lj/cut/coul/long/soft     0.000000     1.000000  1.0  # HO-D Hw
pair_coeff    6    8 lj/cut/coul/long/soft     0.000000     1.779185  1.0  # HO-D Ow
pair_coeff    7    7 lj/cut/coul/long     0.000000     1.000000  # Hw Hw
pair_coeff    7    8 lj/cut/coul/long     0.000000     1.779185  # Hw Ow
pair_coeff    8    8 lj/cut/coul/long     0.155425     3.165500  # Ow Ow

variable TK equal 300.0
variable PBAR equal 1.0

neighbor 2.0 bin

timestep 1.0

velocity all create ${TK} 12345

fix SHAKE all shake 0.0001 20 0 b 2 4 5 a 6

fix NPT all npt temp ${TK} ${TK} 100 iso ${PBAR} ${PBAR} 500

thermo_style custom step cpu epair emol etotal temp press density
thermo 1000

run 200000

reset_timestep 0

variable lambda equal ramp(1.0,0.0)
variable minusl equal 1.0-v_lambda
variable q1 equal  0.145*v_lambda-0.180*(1.0-v_lambda)
variable q2 equal -0.180*(1.0-v_lambda)
variable q3 equal  0.060*(1.0-v_lambda)
variable q4 equal  0.040*v_lambda+0.060*(1.0-v_lambda)
variable q5 equal -0.683*v_lambda
variable q6 equal  0.418*v_lambda

fix ADAPT all adapt/fep 100000 &
    pair lj/cut/coul/long/soft lambda 2*3 7*8 v_minusl &
    pair lj/cut/coul/long/soft lambda 3 4 v_minusl &
    pair lj/cut/coul/long/soft lambda 4 6 v_lambda &
    pair lj/cut/coul/long/soft lambda 5*6 7*8 v_lambda &
    atom charge 1 v_q1 &
    atom charge 2 v_q2 &
    atom charge 3 v_q3 &
    atom charge 4 v_q4 &
    atom charge 5 v_q5 &
    atom charge 6 v_q6 &
    after yes

variable dlambda equal -0.05
variable minusdl equal  0.05
variable dq1 equal (0.145+0.180)*v_dlambda
variable dq2 equal  0.180*v_dlambda
variable dq3 equal -0.060*v_dlambda
variable dq4 equal (0.040-0.060)*v_dlambda
variable dq5 equal -0.683*v_dlambda
variable dq6 equal  0.418*v_dlambda

compute FEP all fep ${TK} &
    pair lj/cut/coul/long/soft lambda 2*3 7*8 v_minusdl &
    pair lj/cut/coul/long/soft lambda 3 4 v_minusdl &
    pair lj/cut/coul/long/soft lambda 4 6 v_dlambda &
    pair lj/cut/coul/long/soft lambda 5*6 7*8 v_dlambda &
    atom charge 1 v_dq1 &
    atom charge 2 v_dq2 &
    atom charge 3 v_dq3 &
    atom charge 4 v_dq4 &
    atom charge 5 v_dq5 &
    atom charge 6 v_dq6 &
    volume yes

fix FEP all ave/time 20 4000 100000 c_FEP[*] file fep10.fep

thermo_style custom step cpu epair emol etotal temp press density v_lambda

dump TRAJ all custom 20000 dump.lammpstrj id mol type element xu yu zu
dump_modify TRAJ element C C H H O H H O

#restart 20000 restart1.lmp restart2.lmp

run 2000000

write_data data.*.lmp
