LAMMPS (4 Jul 2026 - Development - patch_4Jul2026-849-g1c8247b3e4-modified)
  using 1 OpenMP thread(s) per MPI task
# sample LAMMPS input script for diffusion of 2d LJ liquid
# mean-squared displacement via compute msd

# settings

variable        x equal 40
variable        y equal 40

variable        rho equal 0.6
variable        t equal 1.0
variable        rc equal 2.5

# problem setup

units           lj
dimension       2
atom_style      atomic
neigh_modify    delay 0 every 1

lattice         sq2 ${rho}
lattice         sq2 0.6
Lattice spacing in x,y,z = 1.8257419 1.8257419 1.8257419
region          simbox block 0 $x 0 $y -0.1 0.1
region          simbox block 0 40 0 $y -0.1 0.1
region          simbox block 0 40 0 40 -0.1 0.1
create_box      1 simbox
Created orthogonal box = (0 0 -0.18257419) to (73.029674 73.029674 0.18257419)
  2 by 2 by 1 MPI processor grid
create_atoms    1 box
Created 3200 atoms
  using lattice units in orthogonal box = (0 0 -0.18257419) to (73.029674 73.029674 0.18257419)
  create_atoms CPU = 0.000 seconds

pair_style      lj/cut ${rc}
pair_style      lj/cut 2.5
pair_coeff      * * 1 1

mass            * 1.0
velocity        all create $t 97287 loop geom
velocity        all create 1 97287 loop geom

fix             1 all nve
fix             2 all langevin $t $t 0.1 498094
fix             2 all langevin 1 $t 0.1 498094
fix             2 all langevin 1 1 0.1 498094
fix             3 all enforce2d

# equilibration run

thermo          1000
run             5000
Generated 0 of 0 mixed pair_coeff terms from geometric mixing rule
Neighbor list info ...
  update: every = 1 steps, delay = 0 steps, check = yes
  max neighbors/atom: 2000, page size: 100000
  master list distance cutoff = 2.8
  ghost atom cutoff = 2.8
  binsize = 1.4, bins = 53 53 1
  1 neighbor lists, perpetual/occasional/extra = 1 0 0
  (1) pair lj/cut, perpetual
      attributes: half, newton on
      pair build: half/bin/atomonly/newton
      stencil: half/bin/2d
      bin: standard
Per MPI rank memory allocation (min/avg/max) = 3.058 | 3.058 | 3.058 Mbytes
   Step          Temp          E_pair         E_mol          TotEng         Press     
         0   1             -1.56492        0             -0.5652325     -1.5346995    
      1000   1.0162297     -1.565175       0             -0.5492629      1.0500162    
      2000   0.96811061    -1.5936145      0             -0.62580641     0.93102738   
      3000   0.99373083    -1.5814425      0             -0.58802221     1.1211175    
      4000   1.0122521     -1.6037723      0             -0.59183653     0.94011194   
      5000   0.98724908    -1.5935131      0             -0.60657253     0.9594572    
Loop time of 0.402258 on 4 procs for 5000 steps with 3200 atoms

Performance: 5369689.843 tau/day, 12429.838 timesteps/s, 39.775 Matom-step/s
99.4% CPU use with 4 MPI tasks x 1 OpenMP threads

MPI task timing breakdown:
Section |  min time  |  avg time  |  max time  |%varavg| %total
---------------------------------------------------------------
Pair    | 0.12147    | 0.12284    | 0.12466    |   0.4 | 30.54
Neigh   | 0.062614   | 0.063514   | 0.064211   |   0.3 | 15.79
Comm    | 0.03132    | 0.033518   | 0.03553    |   1.0 |  8.33
Output  | 3.9426e-05 | 4.7957e-05 | 5.9103e-05 |   0.0 |  0.01
Modify  | 0.15967    | 0.16582    | 0.17181    |   1.4 | 41.22
Other   |            | 0.01652    |            |       |  4.11

Nlocal:            800 ave         802 max         795 min
Histogram: 1 0 0 0 0 0 0 0 1 2
Nghost:          269.5 ave         274 max         265 min
Histogram: 2 0 0 0 0 0 0 0 0 2
Neighs:         5609.5 ave        5687 max        5537 min
Histogram: 1 1 0 0 0 0 0 0 1 1

Total # of neighbors = 22438
Ave neighs/atom = 7.011875
Neighbor list builds = 601
Dangerous builds = 0

unfix           2

# data gathering run

reset_timestep  0

# factor of 4 in 2 variables is for 2d

compute         msd all msd com yes
variable        twopoint equal c_msd[4]/4/(step*dt+1.0e-6)
fix             9 all vector 10 c_msd[4]
variable        fitslope equal slope(f_9)/4/(10*dt)

thermo_style    custom step temp c_msd[4] v_twopoint v_fitslope

# only need to run for 10K steps to make a good 100-frame movie

#dump           1 all custom 1 tmp.dump id type vx vy vz

#dump           2 all image 100 image.*.jpg type type zoom 1.6 adiam 1.2

thermo          1000
run             100000
Generated 0 of 0 mixed pair_coeff terms from geometric mixing rule
Per MPI rank memory allocation (min/avg/max) = 3.433 | 3.433 | 3.433 Mbytes
   Step          Temp         c_msd[4]      v_twopoint     v_fitslope  
         0   0.98724908     0              0              5e+20        
      1000   0.99194478     3.9862369      0.1993118      0.20194728   
      2000   0.98482677     8.9413206      0.22353299     0.22884104   
      3000   0.99121108     14.262189      0.23770313     0.24401567   
      4000   0.99646466     19.690965      0.24613705     0.25304307   
      5000   0.97882754     25.683431      0.2568343      0.26013656   
      6000   0.9836848      32.102019      0.26751681     0.27016901   
      7000   0.96303378     37.972755      0.27123396     0.27731321   
      8000   0.99126738     44.695086      0.27934428     0.28370616   
      9000   0.98667284     50.866735      0.28259296     0.28930925   
     10000   0.99075628     57.317615      0.28658807     0.29297873   
     11000   1.0085905      63.526124      0.2887551      0.29639383   
     12000   0.96987727     69.986384      0.29160993     0.29931488   
     13000   0.99661553     77.24262       0.29708699     0.30253665   
     14000   0.99404913     84.034637      0.3001237      0.3059568    
     15000   0.98559317     90.858792      0.30286264     0.30903083   
     16000   0.99062929     97.262683      0.30394588     0.31157233   
     17000   0.98530456     103.38564      0.30407542     0.31312562   
     18000   0.99859709     109.58517      0.30440323     0.31436279   
     19000   0.98794616     115.04208      0.3027423      0.31464117   
     20000   0.9981906      121.28699      0.30321746     0.31478377   
     21000   0.97596214     126.78613      0.30187173     0.31460657   
     22000   0.99341481     134.41867      0.30549698     0.3145105    
     23000   0.99290062     140.59936      0.30565079     0.3147664    
     24000   0.98267861     146.21831      0.30462147     0.31480107   
     25000   0.98775246     152.35163      0.30470326     0.31454755   
     26000   0.96530122     158.54571      0.30489559     0.31435388   
     27000   0.9795601      165.1408       0.3058163      0.3142414    
     28000   0.97930219     172.34076      0.30775136     0.31429638   
     29000   0.99627923     180.52621      0.31125208     0.31494536   
     30000   0.98091548     190.58061      0.31763435     0.31632495   
     31000   0.98787352     200.44097      0.32329189     0.31856975   
     32000   0.97817856     209.28943      0.32701474     0.32128822   
     33000   0.99655896     218.57951      0.33118108     0.32428957   
     34000   0.98264003     225.68163      0.33188474     0.32715475   
     35000   0.96736506     233.81325      0.33401893     0.3298246    
     36000   0.98771177     241.42118      0.3353072      0.33234779   
     37000   0.99178078     249.94597      0.33776482     0.33480153   
     38000   0.98320262     258.61794      0.34028676     0.3372484    
     39000   0.99814304     269.1903       0.34511576     0.33988489   
     40000   0.99217896     279.491        0.34936375     0.3428485    
     41000   0.99647643     289.92277      0.35356435     0.34602351   
     42000   1.0031144      299.71937      0.35680877     0.34930001   
     43000   1.0029064      310.25414      0.36076063     0.35261371   
     44000   0.97305224     320.96225      0.36472983     0.35607501   
     45000   0.99679331     329.82889      0.36647654     0.3595124    
     46000   0.97136805     338.86099      0.36832716     0.36271292   
     47000   0.98189714     347.64928      0.36983966     0.36573067   
     48000   0.97786461     356.38658      0.37123602     0.36865846   
     49000   0.98607967     363.07492      0.37048461     0.37118869   
     50000   0.99525421     371.43895      0.37143895     0.37345749   
     51000   0.99251914     381.09802      0.37362551     0.37562691   
     52000   0.987529       391.01916      0.37597996     0.37779376   
     53000   0.98733134     400.965        0.37826887     0.38001721   
     54000   0.98597856     410.4361       0.38003342     0.38220324   
     55000   0.987508       417.81844      0.37983494     0.38425566   
     56000   0.99298033     427.90336      0.38205657     0.38618399   
     57000   0.99406402     437.64007      0.3838948      0.3881122    
     58000   0.98009887     447.99481      0.38620242     0.39002534   
     59000   0.98281442     459.35177      0.38928116     0.39201589   
     60000   0.98878482     470.62105      0.39218421     0.39411575   
     61000   0.98090574     482.16475      0.39521701     0.39629803   
     62000   0.97621285     491.9648       0.39674581     0.3984883    
     63000   0.98172253     504.18997      0.40015077     0.40068256   
     64000   0.9877361      514.95975      0.4023123      0.40292065   
     65000   0.98716777     525.25307      0.40404082     0.40512148   
     66000   0.99835792     536.55315      0.40647966     0.40735087   
     67000   0.99441669     544.72593      0.40651189     0.40944793   
     68000   0.99702395     553.24671      0.40679905     0.41139905   
     69000   0.98799891     558.16712      0.40446893     0.41309902   
     70000   0.99273691     568.41058      0.40600756     0.41460582   
     71000   0.99479865     576.69233      0.40612136     0.41605448   
     72000   0.98492686     583.13776      0.40495677     0.41732571   
     73000   0.98077617     589.76989      0.40395198     0.41840339   
     74000   0.97698526     595.6036       0.40243486     0.41924226   
     75000   0.99734767     602.21627      0.40147751     0.41995753   
     76000   0.9899528      609.2595       0.40082862     0.42052897   
     77000   0.98322985     613.68979      0.39849986     0.42088557   
     78000   0.97718103     619.05152      0.3968279      0.42107633   
     79000   0.99648362     621.72596      0.39349744     0.4210235    
     80000   1.0042573      625.24837      0.39078023     0.42071642   
     81000   0.98512943     631.51076      0.38982146     0.42030357   
     82000   0.98553857     634.17838      0.38669414     0.41976039   
     83000   1.001501       636.33066      0.38333172     0.41895347   
     84000   0.99505091     640.69544      0.38136633     0.41800588   
     85000   0.99151558     643.8127       0.37871335     0.41693045   
     86000   0.99675717     648.41602      0.37698606     0.41573368   
     87000   0.98382125     652.96398      0.37526665     0.41449203   
     88000   0.98434145     656.65293      0.37309826     0.41316409   
     89000   0.99061214     662.49413      0.37218771     0.41179775   
     90000   0.99149008     668.27378      0.37126321     0.41044187   
     91000   0.99654308     670.83162      0.3685888      0.40901172   
     92000   0.98895713     676.45446      0.36763829     0.40752684   
     93000   0.99471374     681.14922      0.36620926     0.40604709   
     94000   0.98767604     683.65361      0.36364554     0.40452663   
     95000   0.98146904     690.04724      0.36318276     0.40296486   
     96000   0.98058369     695.48138      0.36222988     0.401437     
     97000   0.99180878     700.78509      0.36122943     0.39989983   
     98000   0.98458642     709.14996      0.36181121     0.39843177   
     99000   0.99408609     713.81089      0.36051055     0.39699355   
    100000   0.99351905     723.75462      0.36187731     0.39562179   
Loop time of 5.60407 on 4 procs for 100000 steps with 3200 atoms

Performance: 7708677.431 tau/day, 17844.161 timesteps/s, 57.101 Matom-step/s
98.9% CPU use with 4 MPI tasks x 1 OpenMP threads

MPI task timing breakdown:
Section |  min time  |  avg time  |  max time  |%varavg| %total
---------------------------------------------------------------
Pair    | 2.7478     | 2.7698     | 2.7944     |   1.1 | 49.42
Neigh   | 1.2609     | 1.2723     | 1.2836     |   0.7 | 22.70
Comm    | 0.68955    | 0.71972    | 0.75047    |   2.7 | 12.84
Output  | 0.0034093  | 0.0035219  | 0.0037665  |   0.2 |  0.06
Modify  | 0.46432    | 0.5171     | 0.65897    |  11.4 |  9.23
Other   |            | 0.3216     |            |       |  5.74

Nlocal:            800 ave         804 max         792 min
Histogram: 1 0 0 0 0 0 0 1 0 2
Nghost:         268.75 ave         278 max         260 min
Histogram: 1 1 0 0 0 0 0 0 1 1
Neighs:        5600.75 ave        5698 max        5536 min
Histogram: 1 0 1 1 0 0 0 0 0 1

Total # of neighbors = 22403
Ave neighs/atom = 7.0009375
Neighbor list builds = 12782
Dangerous builds = 0
Total wall time: 0:00:06
