LAMMPS (4 Jul 2026 - Development - patch_4Jul2026-849-g1c8247b3e4-modified)
  using 1 OpenMP thread(s) per MPI task
# sample LAMMPS input script for diffusion of 2d LJ liquid
# mean-squared displacement via compute msd

# settings

variable        x equal 40
variable        y equal 40

variable        rho equal 0.6
variable        t equal 1.0
variable        rc equal 2.5

# problem setup

units           lj
dimension       2
atom_style      atomic
neigh_modify    delay 0 every 1

lattice         sq2 ${rho}
lattice         sq2 0.6
Lattice spacing in x,y,z = 1.8257419 1.8257419 1.8257419
region          simbox block 0 $x 0 $y -0.1 0.1
region          simbox block 0 40 0 $y -0.1 0.1
region          simbox block 0 40 0 40 -0.1 0.1
create_box      1 simbox
Created orthogonal box = (0 0 -0.18257419) to (73.029674 73.029674 0.18257419)
  1 by 1 by 1 MPI processor grid
create_atoms    1 box
Created 3200 atoms
  using lattice units in orthogonal box = (0 0 -0.18257419) to (73.029674 73.029674 0.18257419)
  create_atoms CPU = 0.000 seconds

pair_style      lj/cut ${rc}
pair_style      lj/cut 2.5
pair_coeff      * * 1 1

mass            * 1.0
velocity        all create $t 97287 loop geom
velocity        all create 1 97287 loop geom

fix             1 all nve
fix             2 all langevin $t $t 0.1 498094
fix             2 all langevin 1 $t 0.1 498094
fix             2 all langevin 1 1 0.1 498094
fix             3 all enforce2d

# equilibration run

thermo          1000
run             5000
Generated 0 of 0 mixed pair_coeff terms from geometric mixing rule
Neighbor list info ...
  update: every = 1 steps, delay = 0 steps, check = yes
  max neighbors/atom: 2000, page size: 100000
  master list distance cutoff = 2.8
  ghost atom cutoff = 2.8
  binsize = 1.4, bins = 53 53 1
  1 neighbor lists, perpetual/occasional/extra = 1 0 0
  (1) pair lj/cut, perpetual
      attributes: half, newton on
      pair build: half/bin/atomonly/newton
      stencil: half/bin/2d
      bin: standard
Per MPI rank memory allocation (min/avg/max) = 3.096 | 3.096 | 3.096 Mbytes
   Step          Temp          E_pair         E_mol          TotEng         Press     
         0   1             -1.56492        0             -0.5652325     -1.5346995    
      1000   0.9740259     -1.5739607      0             -0.6002392      0.98010048   
      2000   1.0048177     -1.5920217      0             -0.58751799     0.87076221   
      3000   1.0113423     -1.5862875      0             -0.57526121     1.0195478    
      4000   0.99023397    -1.5844182      0             -0.5944937      1.0487955    
      5000   0.98329377    -1.5800008      0             -0.59701435     0.93647204   
Loop time of 1.49756 on 1 procs for 5000 steps with 3200 atoms

Performance: 1442349.967 tau/day, 3338.773 timesteps/s, 10.684 Matom-step/s
99.7% CPU use with 1 MPI tasks x 1 OpenMP threads

MPI task timing breakdown:
Section |  min time  |  avg time  |  max time  |%varavg| %total
---------------------------------------------------------------
Pair    | 0.61721    | 0.61721    | 0.61721    |   0.0 | 41.21
Neigh   | 0.23692    | 0.23692    | 0.23692    |   0.0 | 15.82
Comm    | 0.01331    | 0.01331    | 0.01331    |   0.0 |  0.89
Output  | 9.4851e-05 | 9.4851e-05 | 9.4851e-05 |   0.0 |  0.01
Modify  | 0.60818    | 0.60818    | 0.60818    |   0.0 | 40.61
Other   |            | 0.02184    |            |       |  1.46

Nlocal:           3200 ave        3200 max        3200 min
Histogram: 1 0 0 0 0 0 0 0 0 0
Nghost:            503 ave         503 max         503 min
Histogram: 1 0 0 0 0 0 0 0 0 0
Neighs:          22393 ave       22393 max       22393 min
Histogram: 1 0 0 0 0 0 0 0 0 0

Total # of neighbors = 22393
Ave neighs/atom = 6.9978125
Neighbor list builds = 601
Dangerous builds = 0

unfix           2

# data gathering run

reset_timestep  0

# factor of 4 in 2 variables is for 2d

compute         msd all msd com yes
variable        twopoint equal c_msd[4]/4/(step*dt+1.0e-6)
fix             9 all vector 10 c_msd[4]
variable        fitslope equal slope(f_9)/4/(10*dt)

thermo_style    custom step temp c_msd[4] v_twopoint v_fitslope

# only need to run for 10K steps to make a good 100-frame movie

#dump           1 all custom 1 tmp.dump id type vx vy vz

#dump           2 all image 100 image.*.jpg type type zoom 1.6 adiam 1.2

thermo          1000
run             100000
Generated 0 of 0 mixed pair_coeff terms from geometric mixing rule
Per MPI rank memory allocation (min/avg/max) = 3.471 | 3.471 | 3.471 Mbytes
   Step          Temp         c_msd[4]      v_twopoint     v_fitslope  
         0   0.98329377     0              0              5e+20        
      1000   0.99519791     3.8803561      0.19401776     0.20089432   
      2000   1.0155725      8.9542715      0.22385676     0.22876697   
      3000   1.000568       14.192861      0.23654767     0.24431707   
      4000   0.98901526     19.617914      0.24522392     0.2516688    
      5000   1.0018159      24.975214      0.24975213     0.25705523   
      6000   0.98983807     30.292906      0.25244088     0.25968055   
      7000   1.00078        36.794856      0.26282039     0.26541517   
      8000   0.98878014     43.350072      0.27093794     0.27238469   
      9000   0.98320732     49.881189      0.27711771     0.27903703   
     10000   0.9951415      56.271525      0.28135762     0.2849507    
     11000   0.99657242     61.724966      0.28056802     0.28856821   
     12000   0.98429913     67.257278      0.28023865     0.29003214   
     13000   1.004752       73.006472      0.28079412     0.29099356   
     14000   1.0067969      78.600016      0.28071434     0.29107705   
     15000   1.0066504      84.354934      0.28118311     0.29130965   
     16000   0.99099498     90.364621      0.28238944     0.29134925   
     17000   1.0027438      94.969474      0.27932198     0.29079387   
     18000   0.9986136      102.5076       0.28474334     0.29086058   
     19000   1.0044956      109.47251      0.28808555     0.29187026   
     20000   1.0127506      115.90732      0.28976829     0.29323556   
     21000   0.98798299     123.10412      0.29310504     0.29495083   
     22000   1.0078726      129.43289      0.29416566     0.29671948   
     23000   0.99605156     135.78242      0.29517918     0.29806699   
     24000   0.99119641     143.07739      0.2980779      0.2997549    
     25000   0.99647954     150.16581      0.30033163     0.3014733    
     26000   0.99366698     157.50753      0.30289909     0.30346902   
     27000   0.99117555     165.34907      0.30620198     0.30552698   
     28000   0.99181085     173.03587      0.30899263     0.30797049   
     29000   0.99043759     181.07703      0.31220178     0.31052235   
     30000   0.99077083     188.7151       0.31452516     0.31301296   
     31000   1.0076642      193.87842      0.31270712     0.31515833   
     32000   0.99394235     199.97243      0.31245692     0.31665935   
     33000   0.99102986     205.67084      0.31162249     0.31786708   
     34000   1.0041611      212.55531      0.31258133     0.31881821   
     35000   1.0002372      218.57952      0.31225645     0.31960317   
     36000   1.0100356      223.74472      0.31075655     0.32011305   
     37000   0.98141937     229.86837      0.31063294     0.32032478   
     38000   1.002227       235.99562      0.31052056     0.32054938   
     39000   0.99691202     241.44744      0.309548       0.3205959    
     40000   1.0073054      246.95789      0.30869736     0.32040814   
     41000   0.98090642     253.59549      0.30926279     0.32023348   
     42000   0.99031514     259.67305      0.30913458     0.32006478   
     43000   0.99560502     266.74665      0.31017052     0.31997276   
     44000   0.98735717     274.11828      0.31149804     0.31993677   
     45000   0.99647126     280.12096      0.31124551     0.32003172   
     46000   0.98868169     287.66057      0.31267454     0.32014129   
     47000   1.0001552      295.8324       0.31471532     0.32040728   
     48000   0.98238789     303.7695       0.31642656     0.3209258    
     49000   0.99956137     310.24934      0.31658096     0.3214591    
     50000   0.98898891     316.94042      0.31694042     0.32187172   
     51000   0.99339431     324.09509      0.31774028     0.32232514   
     52000   1.0022474      331.47336      0.31872438     0.32283589   
     53000   0.98734206     337.82421      0.31870208     0.32332799   
     54000   1.0041268      343.83757      0.31836812     0.32368973   
     55000   0.99041885     351.4754       0.31952309     0.32412614   
     56000   0.99947311     360.54761      0.32191751     0.32460773   
     57000   0.9891606      370.00477      0.32456559     0.32536218   
     58000   0.99673208     378.02794      0.32588615     0.32622848   
     59000   0.99467368     386.1627       0.32725653     0.32710983   
     60000   0.9930453      392.84818      0.32737348     0.32802221   
     61000   0.99424158     399.88174      0.32777192     0.32884786   
     62000   0.98990982     406.78789      0.32805475     0.32961016   
     63000   1.0001677      415.30858      0.32960998     0.33041342   
     64000   0.99102571     423.76061      0.33106298     0.33126732   
     65000   1.004885       431.09999      0.33161538     0.33211939   
     66000   1.0075364      440.05382      0.33337411     0.33299707   
     67000   0.9955274      447.88858      0.33424521     0.33394309   
     68000   0.98760733     456.107        0.33537279     0.33489259   
     69000   0.98331922     463.88888      0.33615136     0.33580824   
     70000   0.98969046     471.543        0.33681643     0.33675331   
     71000   1.0077645      480.39263      0.33830467     0.33768674   
     72000   0.99316015     486.42459      0.33779485     0.33859289   
     73000   0.98151506     493.39506      0.33794182     0.33941515   
     74000   0.99894367     501.48915      0.33884402     0.3402169    
     75000   0.99106964     511.33716      0.34089144     0.34104965   
     76000   1.0000758      520.05547      0.34214176     0.34194824   
     77000   0.9932833      527.87085      0.34277328     0.34284664   
     78000   0.99139276     538.31264      0.34507221     0.34380916   
     79000   0.98692391     546.95781      0.34617583     0.34482386   
     80000   0.99142114     556.83517      0.34802198     0.3458577    
     81000   0.99213198     565.65506      0.34916979     0.34691234   
     82000   0.99836838     577.42644      0.35208929     0.3480433    
     83000   1.0036435      586.33129      0.35321162     0.34925785   
     84000   0.99509042     595.87567      0.3546879      0.35046512   
     85000   0.99158774     604.33823      0.35549308     0.35165531   
     86000   0.98743939     612.94823      0.35636525     0.35284653   
     87000   0.99524422     623.76347      0.35848475     0.35405102   
     88000   1.0051407      633.07534      0.35970189     0.35530174   
     89000   1.009044       643.46106      0.36149498     0.35655088   
     90000   0.99886562     652.26179      0.36236766     0.35784934   
     91000   1.0043061      660.96984      0.36317024     0.35910369   
     92000   1.0079649      669.98031      0.36411973     0.36031502   
     93000   0.9897892      678.94878      0.36502623     0.36154429   
     94000   0.99580034     687.21188      0.36553823     0.36273494   
     95000   1.0100107      693.51248      0.36500657     0.36384751   
     96000   1.0107057      702.09159      0.3656727      0.36488948   
     97000   0.99578322     712.08195      0.36705255     0.36594444   
     98000   1.0030983      721.16521      0.36794143     0.36698549   
     99000   1.0077727      729.12872      0.36824683     0.36803188   
    100000   0.98601672     736.61401      0.368307       0.3690123    
Loop time of 19.1562 on 1 procs for 100000 steps with 3200 atoms

Performance: 2255147.984 tau/day, 5220.250 timesteps/s, 16.705 Matom-step/s
99.6% CPU use with 1 MPI tasks x 1 OpenMP threads

MPI task timing breakdown:
Section |  min time  |  avg time  |  max time  |%varavg| %total
---------------------------------------------------------------
Pair    | 11.639     | 11.639     | 11.639     |   0.0 | 60.76
Neigh   | 5.0644     | 5.0644     | 5.0644     |   0.0 | 26.44
Comm    | 0.29001    | 0.29001    | 0.29001    |   0.0 |  1.51
Output  | 0.0068102  | 0.0068102  | 0.0068102  |   0.0 |  0.04
Modify  | 1.7042     | 1.7042     | 1.7042     |   0.0 |  8.90
Other   |            | 0.4513     |            |       |  2.36

Nlocal:           3200 ave        3200 max        3200 min
Histogram: 1 0 0 0 0 0 0 0 0 0
Nghost:            514 ave         514 max         514 min
Histogram: 1 0 0 0 0 0 0 0 0 0
Neighs:          22425 ave       22425 max       22425 min
Histogram: 1 0 0 0 0 0 0 0 0 0

Total # of neighbors = 22425
Ave neighs/atom = 7.0078125
Neighbor list builds = 12851
Dangerous builds = 0
Total wall time: 0:00:20
