LAMMPS (4 Jul 2026 - Development - patch_4Jul2026-849-g1c8247b3e4-modified)
  using 1 OpenMP thread(s) per MPI task
# sample LAMMPS input script for diffusion of 2d LJ liquid
# mean-squared displacement via compute msd

# settings

variable        x equal 40
variable        y equal 40

variable        rho equal 0.6
variable        t equal 1.0
variable        rc equal 2.5

# problem setup

units           lj
dimension       2
atom_style      atomic
neigh_modify    delay 0 every 1

lattice         sq2 ${rho}
lattice         sq2 0.6
Lattice spacing in x,y,z = 1.8257419 1.8257419 1.8257419
region          simbox block 0 $x 0 $y -0.1 0.1
region          simbox block 0 40 0 $y -0.1 0.1
region          simbox block 0 40 0 40 -0.1 0.1
create_box      1 simbox
Created orthogonal box = (0 0 -0.18257419) to (73.029674 73.029674 0.18257419)
  1 by 1 by 1 MPI processor grid
create_atoms    1 box
Created 3200 atoms
  using lattice units in orthogonal box = (0 0 -0.18257419) to (73.029674 73.029674 0.18257419)
  create_atoms CPU = 0.000 seconds

pair_style      lj/cut ${rc}
pair_style      lj/cut 2.5
pair_coeff      * * 1 1

mass            * 1.0
velocity        all create $t 97287 loop geom
velocity        all create 1 97287 loop geom

fix             1 all nve
fix             2 all langevin $t $t 0.1 498094
fix             2 all langevin 1 $t 0.1 498094
fix             2 all langevin 1 1 0.1 498094
fix             3 all enforce2d

# equilibration run

thermo          1000
run             5000
Generated 0 of 0 mixed pair_coeff terms from geometric mixing rule
Neighbor list info ...
  update: every = 1 steps, delay = 0 steps, check = yes
  max neighbors/atom: 2000, page size: 100000
  master list distance cutoff = 2.8
  ghost atom cutoff = 2.8
  binsize = 1.4, bins = 53 53 1
  1 neighbor lists, perpetual/occasional/extra = 1 0 0
  (1) pair lj/cut, perpetual
      attributes: half, newton on
      pair build: half/bin/atomonly/newton
      stencil: half/bin/2d
      bin: standard
Per MPI rank memory allocation (min/avg/max) = 3.096 | 3.096 | 3.096 Mbytes
   Step          Temp          E_pair         E_mol          TotEng         Press     
         0   1             -1.56492        0             -0.5652325     -1.5346995    
      1000   0.9740259     -1.5739607      0             -0.6002392      0.98010048   
      2000   1.0048177     -1.5920217      0             -0.58751799     0.87076221   
      3000   1.0113423     -1.5862875      0             -0.57526121     1.0195478    
      4000   0.99023397    -1.5844182      0             -0.5944937      1.0487955    
      5000   0.98329377    -1.5800008      0             -0.59701435     0.93647204   
Loop time of 1.51534 on 1 procs for 5000 steps with 3200 atoms

Performance: 1425424.815 tau/day, 3299.594 timesteps/s, 10.559 Matom-step/s
99.6% CPU use with 1 MPI tasks x 1 OpenMP threads

MPI task timing breakdown:
Section |  min time  |  avg time  |  max time  |%varavg| %total
---------------------------------------------------------------
Pair    | 0.62698    | 0.62698    | 0.62698    |   0.0 | 41.38
Neigh   | 0.23751    | 0.23751    | 0.23751    |   0.0 | 15.67
Comm    | 0.013179   | 0.013179   | 0.013179   |   0.0 |  0.87
Output  | 0.0001065  | 0.0001065  | 0.0001065  |   0.0 |  0.01
Modify  | 0.61523    | 0.61523    | 0.61523    |   0.0 | 40.60
Other   |            | 0.02234    |            |       |  1.47

Nlocal:           3200 ave        3200 max        3200 min
Histogram: 1 0 0 0 0 0 0 0 0 0
Nghost:            503 ave         503 max         503 min
Histogram: 1 0 0 0 0 0 0 0 0 0
Neighs:          22393 ave       22393 max       22393 min
Histogram: 1 0 0 0 0 0 0 0 0 0

Total # of neighbors = 22393
Ave neighs/atom = 6.9978125
Neighbor list builds = 601
Dangerous builds = 0

unfix           2

# data gathering run

reset_timestep  0

compute         vacf all vacf
fix             4 all ave/time 1 1 1 c_vacf[4] #file tmp.vacf

# factor of 0.5 is for 2d

fix             5 all vector 1 c_vacf[4]
variable        vacf equal 0.5*dt*trap(f_5)

thermo_style    custom step temp c_vacf[4] v_vacf

# only need to run for 10K steps to make a good 100-frame movie

#dump           1 all custom 1 tmp.dump id type vx vy vz

#dump           2 all image 100 image.*.jpg type type zoom 1.6 adiam 1.2

thermo          1000
run             100000
Generated 0 of 0 mixed pair_coeff terms from geometric mixing rule
Per MPI rank memory allocation (min/avg/max) = 3.471 | 3.471 | 3.471 Mbytes
   Step          Temp        c_vacf[4]        v_vacf    
         0   0.98329377     1.965973       0            
      1000   0.99519791    -0.0018213022   0.24490158   
      2000   1.0155725     -0.0061974073   0.26638793   
      3000   1.000568       0.027162236    0.2837089    
      4000   0.98901526     0.025364607    0.32663681   
      5000   1.0018159     -0.01002366     0.35778986   
      6000   0.98983807    -0.02227252     0.34256985   
      7000   1.00078       -0.0089238299   0.34053291   
      8000   0.98878014     0.033109809    0.35121648   
      9000   0.98320732     0.034994047    0.39673936   
     10000   0.9951415     -0.013014902    0.42778519   
     11000   0.99657242     0.04748948     0.43771899   
     12000   0.98429913     0.00041689063  0.4209097    
     13000   1.004752      -0.046237446    0.42902334   
     14000   1.0067969     -0.0018222803   0.41845278   
     15000   1.0066504      0.0074466581   0.41739504   
     16000   0.99099498    -0.012936337    0.40346033   
     17000   1.0027438      0.0011227618   0.3948514    
     18000   0.9986136     -0.0044648772   0.39968717   
     19000   1.0044956     -0.0101371      0.40525384   
     20000   1.0127506      0.0033748242   0.38716586   
     21000   0.98798299     0.034754852    0.40781506   
     22000   1.0078726      0.021775308    0.39848675   
     23000   0.99605156    -0.016176829    0.38654358   
     24000   0.99119641     0.012734564    0.39567787   
     25000   0.99647954     0.01993118     0.43023247   
     26000   0.99366698    -0.016287033    0.43157473   
     27000   0.99117555     0.015536733    0.42081674   
     28000   0.99181085     0.036729759    0.38362907   
     29000   0.99043759     0.010379303    0.38582236   
     30000   0.99077083     0.0017172463   0.39978061   
     31000   1.0076642     -0.039224185    0.41195991   
     32000   0.99394235     0.015568895    0.39855958   
     33000   0.99102986     0.007740966    0.40407199   
     34000   1.0041611     -0.01601068     0.40266672   
     35000   1.0002372     -0.021029472    0.44205891   
     36000   1.0100356     -0.0063475618   0.44640944   
     37000   0.98141937    -0.02052557     0.42766104   
     38000   1.002227      -0.019110805    0.424894     
     39000   0.99691202    -0.039592074    0.43926958   
     40000   1.0073054      0.026672467    0.42799201   
     41000   0.98090642    -0.012252691    0.44568398   
     42000   0.99031514     0.0098786562   0.46310562   
     43000   0.99560502    -0.028233379    0.48812836   
     44000   0.98735717     0.0045693418   0.48687131   
     45000   0.99647126    -0.0078917613   0.50853911   
     46000   0.98868169     0.0089751043   0.47263249   
     47000   1.0001552     -0.0084509464   0.45940404   
     48000   0.98238789     0.012647264    0.46639927   
     49000   0.99956137    -0.00055764886  0.44278909   
     50000   0.98898891    -0.054037058    0.43478381   
     51000   0.99339431     0.014067805    0.414249     
     52000   1.0022474     -0.026728774    0.40235371   
     53000   0.98734206    -0.045745785    0.38135733   
     54000   1.0041268     -0.020599002    0.38204453   
     55000   0.99041885    -0.010408025    0.38549886   
     56000   0.99947311    -0.016509398    0.37878599   
     57000   0.9891606     -0.011870574    0.35992479   
     58000   0.99673208    -0.016351625    0.36871017   
     59000   0.99467368    -0.026470402    0.35099566   
     60000   0.9930453      0.0054411335   0.3214506    
     61000   0.99424158    -0.018007659    0.32118222   
     62000   0.98990982     0.0009732511   0.3332099    
     63000   1.0001677      0.00054243234  0.31824664   
     64000   0.99102571    -0.0010011891   0.30841233   
     65000   1.004885      -0.014886613    0.32165944   
     66000   1.0075364      0.0060459675   0.3356061    
     67000   0.9955274      0.0040951638   0.32477952   
     68000   0.98760733    -0.043172712    0.33046417   
     69000   0.98331922    -0.040193681    0.31203874   
     70000   0.98969046    -0.060821973    0.32832815   
     71000   1.0077645     -0.031846038    0.30988143   
     72000   0.99316015     0.0032433762   0.28273686   
     73000   0.98151506     0.014401574    0.30083395   
     74000   0.99894367     0.028530211    0.32114495   
     75000   0.99106964    -0.0088766887   0.34294907   
     76000   1.0000758     -0.04721571     0.31389622   
     77000   0.9932833      0.0048689486   0.29353004   
     78000   0.99139276     0.023863518    0.29358505   
     79000   0.98692391     0.032343803    0.29876608   
     80000   0.99142114    -0.00051491191  0.30824392   
     81000   0.99213198     0.012215991    0.31534      
     82000   0.99836838    -0.028892596    0.3424764    
     83000   1.0036435     -0.0017417193   0.35418219   
     84000   0.99509042     0.0082314188   0.35592652   
     85000   0.99158774    -0.0039483726   0.36580839   
     86000   0.98743939    -0.031520036    0.3532672    
     87000   0.99524422    -0.04423961     0.31454593   
     88000   1.0051407     -0.014465255    0.3280903    
     89000   1.009044       0.031393575    0.32211723   
     90000   0.99886562    -0.014691365    0.32151156   
     91000   1.0043061     -0.0067258484   0.31553449   
     92000   1.0079649      0.017489449    0.36101112   
     93000   0.9897892     -0.021568126    0.384565     
     94000   0.99580034     0.0014493484   0.38197437   
     95000   1.0100107     -0.0090432568   0.38406245   
     96000   1.0107057      0.029844347    0.39440942   
     97000   0.99578322     0.00012970703  0.41310867   
     98000   1.0030983     -0.027613006    0.40650702   
     99000   1.0077727      0.033637054    0.44648191   
    100000   0.98601672     0.0089737801   0.45361191   
Loop time of 25.6078 on 1 procs for 100000 steps with 3200 atoms

Performance: 1686989.091 tau/day, 3905.067 timesteps/s, 12.496 Matom-step/s
99.6% CPU use with 1 MPI tasks x 1 OpenMP threads

MPI task timing breakdown:
Section |  min time  |  avg time  |  max time  |%varavg| %total
---------------------------------------------------------------
Pair    | 16.754     | 16.754     | 16.754     |   0.0 | 65.43
Neigh   | 5.0471     | 5.0471     | 5.0471     |   0.0 | 19.71
Comm    | 0.29014    | 0.29014    | 0.29014    |   0.0 |  1.13
Output  | 0.01719    | 0.01719    | 0.01719    |   0.0 |  0.07
Modify  | 3.0257     | 3.0257     | 3.0257     |   0.0 | 11.82
Other   |            | 0.4732     |            |       |  1.85

Nlocal:           3200 ave        3200 max        3200 min
Histogram: 1 0 0 0 0 0 0 0 0 0
Nghost:            514 ave         514 max         514 min
Histogram: 1 0 0 0 0 0 0 0 0 0
Neighs:          22425 ave       22425 max       22425 min
Histogram: 1 0 0 0 0 0 0 0 0 0

Total # of neighbors = 22425
Ave neighs/atom = 7.0078125
Neighbor list builds = 12851
Dangerous builds = 0
Total wall time: 0:00:27
