LAMMPS (4 Jul 2026 - Development - patch_4Jul2026-849-g1c8247b3e4-modified)
  using 1 OpenMP thread(s) per MPI task
# sample LAMMPS input script for diffusion of 2d LJ liquid
# mean-squared displacement via compute msd

# settings

variable        x equal 40
variable        y equal 40

variable        rho equal 0.6
variable        t equal 1.0
variable        rc equal 2.5

# problem setup

units           lj
dimension       2
atom_style      atomic
neigh_modify    delay 0 every 1

lattice         sq2 ${rho}
lattice         sq2 0.6
Lattice spacing in x,y,z = 1.8257419 1.8257419 1.8257419
region          simbox block 0 $x 0 $y -0.1 0.1
region          simbox block 0 40 0 $y -0.1 0.1
region          simbox block 0 40 0 40 -0.1 0.1
create_box      1 simbox
Created orthogonal box = (0 0 -0.18257419) to (73.029674 73.029674 0.18257419)
  2 by 2 by 1 MPI processor grid
create_atoms    1 box
Created 3200 atoms
  using lattice units in orthogonal box = (0 0 -0.18257419) to (73.029674 73.029674 0.18257419)
  create_atoms CPU = 0.000 seconds

pair_style      lj/cut ${rc}
pair_style      lj/cut 2.5
pair_coeff      * * 1 1

mass            * 1.0
velocity        all create $t 97287 loop geom
velocity        all create 1 97287 loop geom

fix             1 all nve
fix             2 all langevin $t $t 0.1 498094
fix             2 all langevin 1 $t 0.1 498094
fix             2 all langevin 1 1 0.1 498094
fix             3 all enforce2d

# equilibration run

thermo          1000
run             5000
Generated 0 of 0 mixed pair_coeff terms from geometric mixing rule
Neighbor list info ...
  update: every = 1 steps, delay = 0 steps, check = yes
  max neighbors/atom: 2000, page size: 100000
  master list distance cutoff = 2.8
  ghost atom cutoff = 2.8
  binsize = 1.4, bins = 53 53 1
  1 neighbor lists, perpetual/occasional/extra = 1 0 0
  (1) pair lj/cut, perpetual
      attributes: half, newton on
      pair build: half/bin/atomonly/newton
      stencil: half/bin/2d
      bin: standard
Per MPI rank memory allocation (min/avg/max) = 3.058 | 3.058 | 3.058 Mbytes
   Step          Temp          E_pair         E_mol          TotEng         Press     
         0   1             -1.56492        0             -0.5652325     -1.5346995    
      1000   1.0162297     -1.565175       0             -0.5492629      1.0500162    
      2000   0.96811061    -1.5936145      0             -0.62580641     0.93102738   
      3000   0.99373083    -1.5814425      0             -0.58802221     1.1211175    
      4000   1.0122521     -1.6037723      0             -0.59183653     0.94011194   
      5000   0.98724908    -1.5935131      0             -0.60657253     0.9594572    
Loop time of 0.401658 on 4 procs for 5000 steps with 3200 atoms

Performance: 5377710.610 tau/day, 12448.404 timesteps/s, 39.835 Matom-step/s
99.3% CPU use with 4 MPI tasks x 1 OpenMP threads

MPI task timing breakdown:
Section |  min time  |  avg time  |  max time  |%varavg| %total
---------------------------------------------------------------
Pair    | 0.121      | 0.12529    | 0.13587    |   1.7 | 31.19
Neigh   | 0.06441    | 0.065054   | 0.065572   |   0.2 | 16.20
Comm    | 0.029594   | 0.039765   | 0.044049   |   3.0 |  9.90
Output  | 4.8252e-05 | 5.2288e-05 | 6.301e-05  |   0.0 |  0.01
Modify  | 0.1583     | 0.15942    | 0.16062    |   0.2 | 39.69
Other   |            | 0.01208    |            |       |  3.01

Nlocal:            800 ave         802 max         795 min
Histogram: 1 0 0 0 0 0 0 0 1 2
Nghost:          269.5 ave         274 max         265 min
Histogram: 2 0 0 0 0 0 0 0 0 2
Neighs:         5609.5 ave        5687 max        5537 min
Histogram: 1 1 0 0 0 0 0 0 1 1

Total # of neighbors = 22438
Ave neighs/atom = 7.011875
Neighbor list builds = 601
Dangerous builds = 0

unfix           2

# data gathering run

reset_timestep  0

compute         vacf all vacf
fix             4 all ave/time 1 1 1 c_vacf[4] #file tmp.vacf

# factor of 0.5 is for 2d

fix             5 all vector 1 c_vacf[4]
variable        vacf equal 0.5*dt*trap(f_5)

thermo_style    custom step temp c_vacf[4] v_vacf

# only need to run for 10K steps to make a good 100-frame movie

#dump           1 all custom 1 tmp.dump id type vx vy vz

#dump           2 all image 100 image.*.jpg type type zoom 1.6 adiam 1.2

thermo          1000
run             100000
Generated 0 of 0 mixed pair_coeff terms from geometric mixing rule
Per MPI rank memory allocation (min/avg/max) = 3.433 | 3.433 | 3.433 Mbytes
   Step          Temp        c_vacf[4]        v_vacf    
         0   0.98724908     1.9738811      0            
      1000   0.99194478    -0.021484648    0.24564774   
      2000   0.98482677     0.00572928     0.2744327    
      3000   0.99121108     0.012056845    0.26270891   
      4000   0.99646466     0.038259437    0.29520517   
      5000   0.97882754     0.028726315    0.29922242   
      6000   0.9836848      0.020491838    0.2968355    
      7000   0.96303378    -0.013244834    0.27981759   
      8000   0.99126738    -0.021098753    0.27802914   
      9000   0.98667284     0.03070755     0.29888721   
     10000   0.99075628    -0.026904045    0.27459185   
     11000   1.0085905     -0.042835099    0.24928942   
     12000   0.96987727     0.014624569    0.27831855   
     13000   0.99661553    -0.01195018     0.28280477   
     14000   0.99404913    -0.018043524    0.30020852   
     15000   0.98559317    -0.040776373    0.28967032   
     16000   0.99062929     0.010728       0.26059285   
     17000   0.98530456     0.019522874    0.26034354   
     18000   0.99859709     0.015576307    0.29556747   
     19000   0.98794616    -0.017803813    0.28971322   
     20000   0.9981906     -0.023895326    0.29675069   
     21000   0.97596214     0.027126874    0.30342781   
     22000   0.99341481    -0.0064730213   0.29375969   
     23000   0.99290062    -0.056615157    0.28115609   
     24000   0.98267861    -0.010525897    0.27368853   
     25000   0.98775246    -0.04972282     0.28171977   
     26000   0.96530122    -0.02035698     0.28884804   
     27000   0.9795601     -0.00091196892  0.27820605   
     28000   0.97930219    -0.066091212    0.28449512   
     29000   0.99627923     0.027286464    0.30278939   
     30000   0.98091548    -0.0074389257   0.30896162   
     31000   0.98787352     0.008647504    0.28715344   
     32000   0.97817856    -0.030801621    0.27902882   
     33000   0.99655896     0.010923902    0.27610459   
     34000   0.98264003     0.0087352716   0.2930159    
     35000   0.96736506    -0.028278551    0.3388734    
     36000   0.98771177    -0.020708993    0.34801319   
     37000   0.99178078     0.014332092    0.3721735    
     38000   0.98320262     0.0087305485   0.38075272   
     39000   0.99814304    -0.0084179301   0.39090832   
     40000   0.99217896    -0.048162531    0.36741572   
     41000   0.99647643     0.0071356771   0.34491842   
     42000   1.0031144     -0.022148445    0.33414347   
     43000   1.0029064     -0.0050992468   0.31794976   
     44000   0.97305224     0.013057157    0.31760614   
     45000   0.99679331    -0.032703564    0.31235953   
     46000   0.97136805    -0.016929339    0.30151277   
     47000   0.98189714    -0.00053515001  0.31463838   
     48000   0.97786461    -0.044759686    0.29449915   
     49000   0.98607967     0.0064336002   0.3054019    
     50000   0.99525421    -0.021861862    0.30975706   
     51000   0.99251914     0.042907158    0.27727185   
     52000   0.987529      -0.019035846    0.27456857   
     53000   0.98733134    -0.0031116044   0.24591887   
     54000   0.98597856    -0.022035335    0.23956606   
     55000   0.987508      -0.020967859    0.2636228    
     56000   0.99298033     0.0024034268   0.30370444   
     57000   0.99406402    -0.0099902048   0.30758667   
     58000   0.98009887    -0.032778055    0.28526386   
     59000   0.98281442    -0.031739911    0.26888567   
     60000   0.98878482     0.05154759     0.2846248    
     61000   0.98090574    -0.016076409    0.28292947   
     62000   0.97621285     0.014275492    0.28983729   
     63000   0.98172253     0.0081459699   0.31916784   
     64000   0.9877361      0.017456673    0.31315485   
     65000   0.98716777    -0.0036917191   0.32437387   
     66000   0.99835792     0.036179758    0.34099178   
     67000   0.99441669     0.030366586    0.34093144   
     68000   0.99702395     0.0065523175   0.35485145   
     69000   0.98799891    -0.030718756    0.35757548   
     70000   0.99273691     0.031828089    0.34037293   
     71000   0.99479865     0.020184386    0.34867873   
     72000   0.98492686     0.014186107    0.35063043   
     73000   0.98077617    -0.045126472    0.36074313   
     74000   0.97698526    -0.048727814    0.34065167   
     75000   0.99734767     0.0053345166   0.35515332   
     76000   0.9899528      0.021125815    0.34819569   
     77000   0.98322985     0.0029439252   0.33430243   
     78000   0.97718103     0.023173309    0.34286408   
     79000   0.99648362    -0.019264857    0.32674047   
     80000   1.0042573      0.043167653    0.32652971   
     81000   0.98512943    -0.032937453    0.34604411   
     82000   0.98553857     0.030928783    0.34358293   
     83000   1.001501      -0.0080643001   0.38179199   
     84000   0.99505091     0.01051921     0.38899079   
     85000   0.99151558    -0.022735525    0.39170439   
     86000   0.99675717    -0.021357531    0.39302888   
     87000   0.98382125    -0.0012889839   0.40396602   
     88000   0.98434145     0.037537641    0.41326969   
     89000   0.99061214     0.020180273    0.40368342   
     90000   0.99149008     0.0006514722   0.42642728   
     91000   0.99654308    -0.0057307277   0.42727748   
     92000   0.98895713    -0.0073734213   0.43830649   
     93000   0.99471374     0.041609888    0.45071726   
     94000   0.98767604    -0.010245256    0.44926286   
     95000   0.98146904     0.045410226    0.46024089   
     96000   0.98058369     0.0083496256   0.4447015    
     97000   0.99180878     0.048753431    0.44848557   
     98000   0.98458642     0.045314516    0.48118941   
     99000   0.99408609     0.026625323    0.48031221   
    100000   0.99351905    -0.040671818    0.52195688   
Loop time of 8.12201 on 4 procs for 100000 steps with 3200 atoms

Performance: 5318877.187 tau/day, 12312.216 timesteps/s, 39.399 Matom-step/s
98.4% CPU use with 4 MPI tasks x 1 OpenMP threads

MPI task timing breakdown:
Section |  min time  |  avg time  |  max time  |%varavg| %total
---------------------------------------------------------------
Pair    | 3.8844     | 4.232      | 5.1634     |  26.2 | 52.11
Neigh   | 1.2492     | 1.2617     | 1.2739     |   0.8 | 15.53
Comm    | 0.59454    | 1.5133     | 1.8644     |  43.2 | 18.63
Output  | 0.015092   | 0.015248   | 0.015506   |   0.1 |  0.19
Modify  | 0.89672    | 0.9112     | 0.92168    |   1.0 | 11.22
Other   |            | 0.1885     |            |       |  2.32

Nlocal:            800 ave         804 max         792 min
Histogram: 1 0 0 0 0 0 0 1 0 2
Nghost:         268.75 ave         278 max         260 min
Histogram: 1 1 0 0 0 0 0 0 1 1
Neighs:        5600.75 ave        5698 max        5536 min
Histogram: 1 0 1 1 0 0 0 0 0 1

Total # of neighbors = 22403
Ave neighs/atom = 7.0009375
Neighbor list builds = 12782
Dangerous builds = 0
Total wall time: 0:00:08
