log none

units		real	
atom_style	atomic

read_data	spce_2.data

#hybrid pair style consisting of
#pair_style table to read in CG pair potential
#pair_style 3b/table for tabulated 3b interactions
pair_style      hybrid/overlay table linear 1200 3b/table

#pair coefficients
pair_coeff      * * table table_CG_CG.txt VOTCA
pair_coeff      * * 3b/table spce_2.3b type1 type2

#nvt run with nose-hoover thermostat
#time coupling of 100 ts for thermostat
#target T is 300 K
fix		1 all nvt temp 300.0 300.0 200.0

#create initial velocities
velocity	all create 300 432567 dist uniform
#remove center of mass linear momentum
velocity	all zero linear

#remove center of mass linear momentum every 1000 time steps in each cartesian direction
fix             remove all momentum 1000 linear 1 1 1

#timestep of 2 fs
timestep	2.0

#print out thermodynamic info every 100 ts
thermo		100

#run 10000 ts
run		10000

#write out dump file every 10 ts for 100000 ts
dump            2 all custom 10 spce_2.dump id type x y z fx fy fz
run		100000

undump          2
