clear
echo
if
include
jump
label
log
next
partition
print
python
quit
shell
variable
angle_coeff
angle_style
atom_modify
atom_style
bond_coeff
bond_style
bond_write
boundary
comm_modify
comm_style
compute
compute_modify
dielectric
dihedral_coeff
dihedral_style
dimension
dump
dump_modify
fix
fix_modify
group
improper_coeff
improper_style
kspace_modify
kspace_style
labelmap
lattice
mass
min_modify
min_style
molecule
neigh_modify
neighbor
newton
package
pair_coeff
pair_modify
pair_style
pair_write
processors
region
reset_timestep
restart
run_style
special_bonds
suffix
thermo
thermo_modify
thermo_style
timestep
timer
uncompute
undump
unfix
units
reset_atoms
