# (written by ASE)
clear
variable dump_file string "/home/users/matoum4n/lammps/ace/trimer_en/trimer_3body_dev/run/trj_lammps000001bwf4lhgv"
variable data_file string "/home/users/matoum4n/lammps/ace/trimer_en/trimer_3body_dev/run/data_lammps000001o7fc22oa"
units metal 
boundary p p p 
atom_modify sort 0 0.0 

read_data /home/users/matoum4n/lammps/ace/trimer_en/trimer_3body_dev/run/data_lammps000001o7fc22oa

### interactions 
pair_style ace 1 8.7 pbe 0.1 
pair_coeff * * * Al 
mass 1 26.98 

### run
fix fix_nve all nve
dump dump_all all custom 1 /home/users/matoum4n/lammps/ace/trimer_en/trimer_3body_dev/run/trj_lammps000001bwf4lhgv id type x y z vx vy vz fx fy fz
thermo_style custom step temp press cpu pxx pyy pzz pxy pxz pyz ke pe etotal vol lx ly lz atoms
thermo_modify flush yes
thermo 1
run 0
print "__end_of_ase_invoked_calculation__" 
log /dev/stdout
