# 3d Lennard-Jones melt

units		metal
atom_style	atomic

lattice		fcc 4.0
region		box block 0 20 0 20 0 20
create_box	1 box
create_atoms	1 box
mass		1 1.0

velocity	all create 300.0 87287 loop geom

pair_style	zbl 3.0 4.0
pair_coeff	1 1 14.0 14.0

neighbor	2.5 bin
neigh_modify    delay 5 every 1

fix		1 all nve

thermo 10

run		100
