&CONTROL
title="Test"
calculation='md',
restart_mode = 'from_scratch',
tprnfor=.t.,
prefix='qe',
pseudo_dir='pseudo'
nstep = 1,
tqmmm = .true.
/

&SYSTEM
ibrav = 1,
celldm(1) = 9.321077825,
celldm(2) = 1.,
celldm(3) = 1.,
celldm(4) = 0.,
celldm(5) = 0.,
celldm(6) = 0.,
nat = 24,
ntyp = 2,
ecutwfc = 80.0 ,
/

&ELECTRONS
conv_thr  = 1.D-6,
/

&IONS
ion_positions = 'default'
/

ATOMIC_SPECIES
O 16.0000 O.pbe-van_bm.UPF
H 1.0000  H.pbe-van_ak.UPF

ATOMIC_POSITIONS angstrom
O 2.17919 0.196156 4.15513
H 2.29785 4.8353 0.126003
H 1.82037 1.07996 4.23498
O 4.65839 0.120414 0.305758
H 4.67446 -0.0220991 4.29186
H 4.28188 0.994196 0.410515
O 3.65045 2.40907 0.344349
H 3.52052 2.1838 4.35565
H 4.26579 3.14208 0.327669
O 1.21327 2.62177 4.15519
H 1.47452 3.53837 4.0667
H 1.20743 2.46396 0.16677
O 4.45777 4.47325 2.74192
H 4.53396 4.49652 1.78804
H 4.21354 3.56943 2.94119
O 2.04119 4.41585 1.64725
H 2.26934 4.77582 2.50434
H 1.69079 3.54574 1.83793
O 3.73384 1.97964 2.81949
H 3.41083 2.22014 1.95113
H 3.91914 1.04272 2.75561
O 1.20859 2.09853 1.68186
H 1.01865 2.25693 2.60655
H 1.16884 1.14674 1.58832

K_POINTS gamma
