LAMMPS (2 Sep 2026)
  using 1 OpenMP thread(s) per MPI task
# 2d rounded polygon bodies

variable    r     index 4
variable    steps index 100000
variable    T     index 0.5
variable    P     index 0.1
variable    seed  index 980411

units       lj
dimension   2

atom_style  body rounded/polygon 1 6
atom_modify map array
read_data   data.squares
Reading data file ...
  orthogonal box = (0 0 -0.5) to (12 12 0.5)
  1 by 1 by 1 MPI processor grid
  reading atoms ...
  2 atoms
  2 bodies
  read_data CPU = 0.001 seconds

replicate   $r $r 1
replicate   4 $r 1
replicate   4 4 1
Replication is creating a 4x4x1 = 16 times larger system...
  orthogonal box = (0 0 -0.5) to (48 48 0.5)
  1 by 1 by 1 MPI processor grid
  32 atoms
  replicate CPU = 0.001 seconds

velocity    all create $T ${seed} dist gaussian mom yes rot yes
velocity    all create 0.5 ${seed} dist gaussian mom yes rot yes
velocity    all create 0.5 980411 dist gaussian mom yes rot yes

variable cut_inner  equal 0.5
variable k_n        equal 100
variable k_na       equal 2
variable c_n        equal 1
variable c_t        equal 1
variable mu         equal 0.1
variable delta_ua   equal 0.5

pair_style body/rounded/polygon ${c_n} ${c_t} ${mu} ${delta_ua} ${cut_inner}
pair_style body/rounded/polygon 1 ${c_t} ${mu} ${delta_ua} ${cut_inner}
pair_style body/rounded/polygon 1 1 ${mu} ${delta_ua} ${cut_inner}
pair_style body/rounded/polygon 1 1 0.1 ${delta_ua} ${cut_inner}
pair_style body/rounded/polygon 1 1 0.1 0.5 ${cut_inner}
pair_style body/rounded/polygon 1 1 0.1 0.5 0.5
pair_coeff * * ${k_n} ${k_na}
pair_coeff * * 100 ${k_na}
pair_coeff * * 100 2

comm_modify vel yes

neighbor     0.5 bin
neigh_modify every 1 delay 0 check yes

timestep     0.001

#fix         1 all nve/body
#fix         1 all nvt/body temp $T $T 1.0
fix          1 all npt/body temp $T $T 1.0 x 0.001 $P 1.0              y 0.001 $P 1.0 couple xy fixedpoint 0 0 0
fix          1 all npt/body temp 0.5 $T 1.0 x 0.001 $P 1.0              y 0.001 $P 1.0 couple xy fixedpoint 0 0 0
fix          1 all npt/body temp 0.5 0.5 1.0 x 0.001 $P 1.0              y 0.001 $P 1.0 couple xy fixedpoint 0 0 0
fix          1 all npt/body temp 0.5 0.5 1.0 x 0.001 0.1 1.0              y 0.001 $P 1.0 couple xy fixedpoint 0 0 0
fix          1 all npt/body temp 0.5 0.5 1.0 x 0.001 0.1 1.0              y 0.001 0.1 1.0 couple xy fixedpoint 0 0 0

fix          2 all enforce2d

#compute      1 all body/local id 1 2 3
#dump         1 all local 100000 dump.polygon.* index c_1[1] c_1[2] c_1[3] c_1[4]

thermo_style custom step ke pe etotal press
thermo       1000

#dump	     2 all image 10000 image.*.jpg type type zoom 2.0 #             adiam 1.5 body type 0 0
#dump_modify  2 pad 6

run          ${steps}
run          100000
Generated 0 of 0 mixed pair_coeff terms from geometric mixing rule
Neighbor list info ...
  update: every = 1 steps, delay = 0 steps, check = yes
  max neighbors/atom: 2000, page size: 100000
  master list distance cutoff = 7.1568542
  ghost atom cutoff = 7.1568542
  binsize = 3.5784271, bins = 14 14 1
  1 neighbor lists, perpetual/occasional/extra = 1 0 0
  (1) pair body/rounded/polygon, perpetual
      attributes: half, newton on
      pair build: half/bin/atomonly/newton
      stencil: half/bin/2d
      bin: standard
Per MPI rank memory allocation (min/avg/max) = 7.137 | 7.137 | 7.137 Mbytes
   Step         KinEng         PotEng         TotEng         Press     
         0   0.484375       0              0.484375       0.0067274306 
      1000   0.39788609    -0.015804061    0.38208203     0.0018374328 
      2000   0.42858561    -0.019195803    0.40938981     0.0024012953 
      3000   0.57858516    -0.030344992    0.54824017     0.0015648124 
      4000   0.76669234    -0.037450495    0.72924184     0.0039900452 
      5000   0.87306748    -0.051154034    0.82191345     0.0065354869 
      6000   0.73019826    -0.075757284    0.65444097     0.012555458  
      7000   0.53425092    -0.092062889    0.44218804     0.0080879943 
      8000   0.66750575    -0.13497288     0.53253287     0.018695836  
      9000   0.84759779    -0.13977782     0.70781997     0.0060026683 
     10000   0.75910479    -0.16001877     0.59908602     0.0058398009 
     11000   0.53966715    -0.19446806     0.34519909     0.00076747533
     12000   0.5632469     -0.20963454     0.35361236     0.016260213  
     13000   0.67013343    -0.27525098     0.39488245     0.016341205  
     14000   0.69302044    -0.29538254     0.39763789     0.018962007  
     15000   0.80938129    -0.32330616     0.48607513     0.020624529  
     16000   0.67302053    -0.35178317     0.32123735     0.027135895  
     17000   0.30335005    -0.36239796    -0.059047903    0.0093580562 
     18000   0.3767396     -0.37047635     0.0062632513   0.020408793  
     19000   0.3496778     -0.41860107    -0.068923266    0.0055349329 
     20000   0.46537777    -0.4335791      0.031798668    0.020162425  
     21000   0.70674852    -0.47347009     0.23327843     0.01894815   
     22000   0.58650341    -0.46475956     0.12174385     0.018947048  
     23000   0.5938602     -0.47140345     0.12245675     0.022945476  
     24000   0.56080894    -0.48157076     0.079238181    0.027851864  
     25000   0.56006939    -0.44940453     0.11066486     0.027910233  
     26000   0.6865251     -0.49814778     0.18837732     0.025328929  
     27000   0.78428669    -0.51225908     0.27202762     0.019586747  
     28000   0.61188334    -0.50575679     0.10612655     0.027417603  
     29000   0.75029699    -0.54612611     0.20417088     0.027582452  
     30000   0.89928031    -0.5477453      0.35153501     0.03547504   
     31000   0.47221723    -0.55523296    -0.083015732    0.021818873  
     32000   0.41710915    -0.5471935     -0.13008434     0.043586096  
     33000   0.44734019    -0.53296923    -0.085629042    0.035967767  
     34000   0.38447357    -0.51643247    -0.13195889     0.03421143   
     35000   0.59917449    -0.55177154     0.047402951    0.03402449   
     36000   0.75196074    -0.56615618     0.18580456     0.040740604  
     37000   0.68095871    -0.51970818     0.16125052     0.049678142  
     38000   0.62412513    -0.57358315     0.05054198     0.047967264  
     39000   0.70423806    -0.58910653     0.11513154     0.047810194  
     40000   0.59481297    -0.56649058     0.028322397    0.06789686   
     41000   0.38469354    -0.59410324    -0.2094097      0.035077736  
     42000   0.24676121    -0.57914349    -0.33238228     0.017276267  
     43000   0.26382645    -0.56176488    -0.29793843     0.043296121  
     44000   0.25827997    -0.58033461    -0.32205464     0.055029281  
     45000   0.24547192    -0.60071517    -0.35524324     0.038699508  
     46000   0.29684394    -0.66982776    -0.37298382     0.041850843  
     47000   0.29278929    -0.631337      -0.33854771     0.039077882  
     48000   0.40439572    -0.64081592    -0.2364202      0.045990782  
     49000   0.35033164    -0.65984943    -0.30951779     0.075420092  
     50000   0.40391515    -0.67029543    -0.26638028     0.064199209  
     51000   0.4100265     -0.61570976    -0.20568326     0.058647415  
     52000   0.41922495    -0.57190596    -0.15268102     0.043649308  
     53000   0.57142857    -0.57132654     0.00010202436  0.06655225   
     54000   0.591177      -0.60565025    -0.014473252    0.012700263  
     55000   0.3351407     -0.60467329    -0.26953259     0.064822254  
     56000   0.1908879     -0.62369241    -0.43280452     0.055177675  
     57000   0.22565213    -0.6385338     -0.41288167     0.059984139  
     58000   0.30830962    -0.6487243     -0.34041467     0.069875045  
     59000   0.5855303     -0.6438049     -0.058274602    0.061590843  
     60000   0.85341106    -0.64946274     0.20394832     0.044855     
     61000   0.70847663    -0.7299128     -0.021436166    0.063170978  
     62000   0.44124429    -0.76998132    -0.32873703     0.075140514  
     63000   0.34182558    -0.76317434    -0.42134876     0.042146299  
     64000   0.28322456    -0.77644247    -0.49321791     0.027271161  
     65000   0.055838866   -0.80324472    -0.74740585     0.046560261  
     66000   0.091630344   -0.86776808    -0.77613773     0.054471476  
     67000   0.03052914    -0.89571455    -0.86518541     0.077612328  
     68000   0.0048449699  -0.92146648    -0.91662151     0.061552396  
     69000   0.0067292595  -0.92832998    -0.92160072     0.060827302  
     70000   0.0033644903  -0.9255506     -0.92218611     0.070785189  
     71000   0.0025181149  -0.92877833    -0.92626021     0.069992695  
     72000   0.00069030048 -0.93225031    -0.93156001     0.070373682  
     73000   0.00077824871 -0.92533774    -0.92455949     0.072747504  
     74000   0.0012892215  -0.9164077     -0.91511848     0.080570333  
     75000   0.00075577441 -0.92467429    -0.92391852     0.082590713  
     76000   0.0009835147  -0.92173241    -0.92074889     0.083059151  
     77000   0.00093840992 -0.92486413    -0.92392572     0.083184419  
     78000   0.00084494833 -0.92463479    -0.92378984     0.08191637   
     79000   0.00099094629 -0.93710914    -0.9361182      0.070425206  
     80000   0.001522893   -0.93719606    -0.93567317     0.077068238  
     81000   0.0014995275  -0.94233167    -0.94083214     0.085080019  
     82000   0.00019746422 -0.94677916    -0.94658169     0.085499073  
     83000   0.00012149451 -0.94055421    -0.94043271     0.08428038   
     84000   9.272604e-05  -0.94444881    -0.94435608     0.066619784  
     85000   7.2858767e-05 -0.94905043    -0.94897757     0.07495579   
     86000   8.5236848e-05 -0.94467862    -0.94459338     0.093823598  
     87000   9.9450858e-05 -0.95113432    -0.95103487     0.099712943  
     88000   0.00011772019 -0.95365143    -0.95353371     0.087429046  
     89000   0.00020971676 -0.95485079    -0.95464108     0.080823892  
     90000   0.00067576441 -0.9531795     -0.95250374     0.08684826   
     91000   0.0029293595  -0.95646035    -0.953531       0.094203151  
     92000   0.013190463   -0.95339228    -0.94020182     0.081077628  
     93000   0.06099695    -0.95825964    -0.89726269     0.078846279  
     94000   0.26797377    -0.9546316     -0.68665783     0.079852206  
     95000   0.90892902    -0.95989167    -0.050962652    0.088925585  
     96000   1.2292996     -0.96408306     0.26521656     0.092142712  
     97000   0.60698872    -0.95567007    -0.34868135     0.095763874  
     98000   0.43283513    -0.95791884    -0.52508371     0.098306299  
     99000   0.64329811    -0.95759617    -0.31429806     0.11230376   
    100000   1.0550883     -0.96454703     0.090541321    0.084943405  
Loop time of 4.82915 on 1 procs for 100000 steps with 32 atoms

Performance: 1789135.334 tau/day, 20707.585 timesteps/s, 662.643 katom-step/s
98.6% CPU use with 1 MPI tasks x 1 OpenMP threads

MPI task timing breakdown:
Section |  min time  |  avg time  |  max time  |%varavg| %total
---------------------------------------------------------------
Pair    | 3.7323     | 3.7323     | 3.7323     |   0.0 | 77.29
Neigh   | 0.0041382  | 0.0041382  | 0.0041382  |   0.0 |  0.09
Comm    | 0.12663    | 0.12663    | 0.12663    |   0.0 |  2.62
Output  | 0.00077878 | 0.00077878 | 0.00077878 |   0.0 |  0.02
Modify  | 0.92551    | 0.92551    | 0.92551    |   0.0 | 19.17
Other   |            | 0.03975    |            |       |  0.82

Nlocal:             32 ave          32 max          32 min
Histogram: 1 0 0 0 0 0 0 0 0 0
Nghost:             45 ave          45 max          45 min
Histogram: 1 0 0 0 0 0 0 0 0 0
Neighs:             95 ave          95 max          95 min
Histogram: 1 0 0 0 0 0 0 0 0 0

Total # of neighbors = 95
Ave neighs/atom = 2.96875
Neighbor list builds = 1268
Dangerous builds = 0
Total wall time: 0:00:04
