LAMMPS (2 Sep 2026)
  using 1 OpenMP thread(s) per MPI task
# 2d rounded polygon bodies

variable    r     index 4
variable    steps index 100000
variable    T     index 0.5
variable    P     index 0.1
variable    seed  index 980411

units       lj
dimension   2

atom_style  body rounded/polygon 1 6
atom_modify map array
read_data   data.squares
Reading data file ...
  orthogonal box = (0 0 -0.5) to (12 12 0.5)
  2 by 2 by 1 MPI processor grid
  reading atoms ...
  2 atoms
  2 bodies
  read_data CPU = 0.001 seconds

replicate   $r $r 1
replicate   4 $r 1
replicate   4 4 1
Replication is creating a 4x4x1 = 16 times larger system...
  orthogonal box = (0 0 -0.5) to (48 48 0.5)
  2 by 2 by 1 MPI processor grid
  32 atoms
  replicate CPU = 0.001 seconds

velocity    all create $T ${seed} dist gaussian mom yes rot yes
velocity    all create 0.5 ${seed} dist gaussian mom yes rot yes
velocity    all create 0.5 980411 dist gaussian mom yes rot yes

variable cut_inner  equal 0.5
variable k_n        equal 100
variable k_na       equal 2
variable c_n        equal 1
variable c_t        equal 1
variable mu         equal 0.1
variable delta_ua   equal 0.5

pair_style body/rounded/polygon ${c_n} ${c_t} ${mu} ${delta_ua} ${cut_inner}
pair_style body/rounded/polygon 1 ${c_t} ${mu} ${delta_ua} ${cut_inner}
pair_style body/rounded/polygon 1 1 ${mu} ${delta_ua} ${cut_inner}
pair_style body/rounded/polygon 1 1 0.1 ${delta_ua} ${cut_inner}
pair_style body/rounded/polygon 1 1 0.1 0.5 ${cut_inner}
pair_style body/rounded/polygon 1 1 0.1 0.5 0.5
pair_coeff * * ${k_n} ${k_na}
pair_coeff * * 100 ${k_na}
pair_coeff * * 100 2

comm_modify vel yes

neighbor     0.5 bin
neigh_modify every 1 delay 0 check yes

timestep     0.001

#fix         1 all nve/body
#fix         1 all nvt/body temp $T $T 1.0
fix          1 all npt/body temp $T $T 1.0 x 0.001 $P 1.0              y 0.001 $P 1.0 couple xy fixedpoint 0 0 0
fix          1 all npt/body temp 0.5 $T 1.0 x 0.001 $P 1.0              y 0.001 $P 1.0 couple xy fixedpoint 0 0 0
fix          1 all npt/body temp 0.5 0.5 1.0 x 0.001 $P 1.0              y 0.001 $P 1.0 couple xy fixedpoint 0 0 0
fix          1 all npt/body temp 0.5 0.5 1.0 x 0.001 0.1 1.0              y 0.001 $P 1.0 couple xy fixedpoint 0 0 0
fix          1 all npt/body temp 0.5 0.5 1.0 x 0.001 0.1 1.0              y 0.001 0.1 1.0 couple xy fixedpoint 0 0 0

fix          2 all enforce2d

#compute      1 all body/local id 1 2 3
#dump         1 all local 100000 dump.polygon.* index c_1[1] c_1[2] c_1[3] c_1[4]

thermo_style custom step ke pe etotal press
thermo       1000

#dump	     2 all image 10000 image.*.jpg type type zoom 2.0 #             adiam 1.5 body type 0 0
#dump_modify  2 pad 6

run          ${steps}
run          100000
Generated 0 of 0 mixed pair_coeff terms from geometric mixing rule
Neighbor list info ...
  update: every = 1 steps, delay = 0 steps, check = yes
  max neighbors/atom: 2000, page size: 100000
  master list distance cutoff = 7.1568542
  ghost atom cutoff = 7.1568542
  binsize = 3.5784271, bins = 14 14 1
  1 neighbor lists, perpetual/occasional/extra = 1 0 0
  (1) pair body/rounded/polygon, perpetual
      attributes: half, newton on
      pair build: half/bin/atomonly/newton
      stencil: half/bin/2d
      bin: standard
Per MPI rank memory allocation (min/avg/max) = 7.13 | 7.13 | 7.13 Mbytes
   Step         KinEng         PotEng         TotEng         Press     
         0   0.484375       0              0.484375       0.0067274306 
      1000   0.39788609    -0.015804061    0.38208203     0.0018374328 
      2000   0.42858561    -0.019195803    0.40938981     0.0024012953 
      3000   0.57858516    -0.030344992    0.54824017     0.0015648124 
      4000   0.76669234    -0.037450495    0.72924184     0.0039900452 
      5000   0.87306748    -0.051154034    0.82191345     0.0065354869 
      6000   0.73019826    -0.075757284    0.65444097     0.012555458  
      7000   0.53425092    -0.092062889    0.44218804     0.0080879943 
      8000   0.66750575    -0.13497288     0.53253287     0.018695836  
      9000   0.84759779    -0.13977782     0.70781997     0.0060026683 
     10000   0.75910479    -0.16001877     0.59908602     0.0058398009 
     11000   0.53966715    -0.19446806     0.34519909     0.00076747538
     12000   0.5632469     -0.20963454     0.35361235     0.016260213  
     13000   0.67013343    -0.27525098     0.39488245     0.016341205  
     14000   0.69302044    -0.29538254     0.3976379      0.018962008  
     15000   0.80938161    -0.32330572     0.48607589     0.020626225  
     16000   0.67302074    -0.35178332     0.32123742     0.02713542   
     17000   0.30334998    -0.3623978     -0.05904782     0.0093584895 
     18000   0.37673858    -0.37047584     0.0062627468   0.020410142  
     19000   0.34967961    -0.4186024     -0.068922788    0.0055354975 
     20000   0.46537253    -0.43357708     0.031795441    0.020180738  
     21000   0.70674855    -0.47343289     0.23331566     0.019005721  
     22000   0.58650458    -0.46475864     0.12174593     0.018928121  
     23000   0.59361378    -0.47149763     0.12211615     0.022716539  
     24000   0.56062849    -0.4817488      0.078879686    0.027491743  
     25000   0.55975569    -0.44952454     0.11023115     0.027792208  
     26000   0.68510354    -0.49888646     0.18621708     0.021665089  
     27000   0.78396935    -0.51216753     0.27180182     0.02066012   
     28000   0.62021751    -0.5039432      0.1162743      0.034085426  
     29000   0.74711162    -0.54370287     0.20340874     0.027933164  
     30000   0.91107051    -0.54069619     0.37037432     0.038267941  
     31000   0.46376226    -0.51842362    -0.054661358    0.022917165  
     32000   0.3934024     -0.5421872     -0.1487848      0.02720003   
     33000   0.51871916    -0.57425944    -0.055540272    0.033143078  
     34000   0.39484776    -0.50769204    -0.11284428     0.046073675  
     35000   0.57262814    -0.52662471     0.046003437    0.03019435   
     36000   0.77461071    -0.5338504      0.24076031     0.037761203  
     37000   0.75299387    -0.50787633     0.24511754     0.033348746  
     38000   0.45156844    -0.48572807    -0.034159631    0.028470726  
     39000   0.35006418    -0.5057047     -0.15564052     0.047618782  
     40000   0.31124742    -0.56549533    -0.25424791     0.047582741  
     41000   0.34702731    -0.57775614    -0.23072883     0.04132073   
     42000   0.56976521    -0.58598256    -0.016217343    0.038263988  
     43000   0.63404587    -0.57080367     0.063242204    0.034425986  
     44000   0.49309566    -0.59140902    -0.098313358    0.042558805  
     45000   0.61319146    -0.64354969    -0.03035823     0.041690395  
     46000   0.72431289    -0.62352626     0.10078663     0.037235691  
     47000   0.7634419     -0.62149504     0.14194686     0.039442483  
     48000   0.68589027    -0.63072147     0.055168796    0.0096510007 
     49000   0.48112046    -0.61705841    -0.13593795     0.050471998  
     50000   0.42806304    -0.62971426    -0.20165122     0.044526576  
     51000   0.58700815    -0.6583003     -0.071292156    0.047553508  
     52000   0.73281328    -0.64921841     0.083594868    0.052156516  
     53000   0.36612822    -0.6438677     -0.27773949     0.053567194  
     54000   0.23689188    -0.64611529    -0.40922341     0.048833296  
     55000   0.08989578    -0.62756198    -0.5376662      0.054197003  
     56000   0.071636856   -0.6335932     -0.56195635     0.060088328  
     57000   0.2302912     -0.62765048    -0.39735928     0.059304227  
     58000   0.46909116    -0.64654349    -0.17745233     0.067225513  
     59000   0.48303785    -0.59791398    -0.11487613     0.091174656  
     60000   0.42576913    -0.5759921     -0.15022298     0.055950455  
     61000   0.47628552    -0.47583397     0.00045155036  0.071079339  
     62000   0.37213735    -0.52447581    -0.15233846     0.036187018  
     63000   0.20733842    -0.57475243    -0.36741401     0.079145839  
     64000   0.11962977    -0.62038764    -0.50075787     0.09266758   
     65000   0.03766032    -0.65751164    -0.61985132     0.067558735  
     66000   0.022876552   -0.6562739     -0.63339735     0.068040409  
     67000   0.04595707    -0.68125669    -0.63529962     0.06542758   
     68000   0.0847854     -0.72565921    -0.64087381     0.054788465  
     69000   0.017846363   -0.75332952    -0.73548316     0.063094973  
     70000   0.001890222   -0.76866714    -0.76677691     0.076236371  
     71000   0.00087779352 -0.7822057     -0.7813279      0.069550254  
     72000   0.0002883872  -0.7869657     -0.78667732     0.067586916  
     73000   0.00038976866 -0.78485845    -0.78446868     0.069685447  
     74000   0.00043607286 -0.77880467    -0.77836859     0.073235159  
     75000   0.00044004019 -0.78178617    -0.78134613     0.068833429  
     76000   0.00050775684 -0.78090125    -0.78039349     0.074259651  
     77000   0.0010662919  -0.78018464    -0.77911835     0.076956682  
     78000   0.0054233191  -0.77997249    -0.77454917     0.080165634  
     79000   0.00074702964 -0.78975028    -0.78900325     0.084128856  
     80000   0.0015720212  -0.79720797    -0.79563594     0.082454474  
     81000   0.0015427734  -0.81396129    -0.81241852     0.074655261  
     82000   0.0016492176  -0.82781723    -0.82616801     0.079552843  
     83000   0.0012904841  -0.84533387    -0.84404338     0.085106596  
     84000   0.00051725365 -0.84039081    -0.83987356     0.079534799  
     85000   0.00065108139 -0.82816648    -0.8275154      0.080536288  
     86000   0.000645235   -0.82955594    -0.82891071     0.08762873   
     87000   0.00068409456 -0.83096141    -0.83027732     0.090610579  
     88000   0.00082018887 -0.83347585    -0.83265566     0.087438061  
     89000   0.0010944056  -0.83146123    -0.83036683     0.10096903   
     90000   0.0043637528  -0.83457517    -0.83021142     0.096781781  
     91000   0.014112698   -0.81787904    -0.80376635     0.11895408   
     92000   0.0055249027  -0.82958492    -0.82406002     0.11552349   
     93000   0.021815065   -0.85134372    -0.82952866     0.068738484  
     94000   0.10026711    -0.84654369    -0.74627659     0.10529477   
     95000   0.42331536    -0.86634285    -0.44302749     0.10620585   
     96000   1.1701399     -0.87675443     0.29338552     0.081561287  
     97000   1.0111285     -0.87909057     0.13203794     0.096101013  
     98000   0.49859517    -0.87016805    -0.37157288     0.11386748   
     99000   0.45705319    -0.87007299    -0.4130198      0.11495578   
    100000   0.79111825    -0.87809413    -0.086975889    0.099329287  
Loop time of 4.24029 on 4 procs for 100000 steps with 32 atoms

Performance: 2037598.052 tau/day, 23583.311 timesteps/s, 754.666 katom-step/s
97.9% CPU use with 4 MPI tasks x 1 OpenMP threads

MPI task timing breakdown:
Section |  min time  |  avg time  |  max time  |%varavg| %total
---------------------------------------------------------------
Pair    | 1.9713     | 1.9893     | 2.0068     |   0.9 | 46.91
Neigh   | 0.0018774  | 0.0021522  | 0.0024669  |   0.5 |  0.05
Comm    | 0.68467    | 0.70616    | 0.7263     |   1.8 | 16.65
Output  | 0.0014733  | 0.0015306  | 0.0016103  |   0.1 |  0.04
Modify  | 1.1498     | 1.2094     | 1.2465     |   3.6 | 28.52
Other   |            | 0.3318     |            |       |  7.82

Nlocal:              8 ave           9 max           6 min
Histogram: 1 0 0 0 0 0 1 0 0 2
Nghost:             24 ave          26 max          23 min
Histogram: 2 0 0 1 0 0 0 0 0 1
Neighs:          23.75 ave          29 max          12 min
Histogram: 1 0 0 0 0 0 0 1 0 2

Total # of neighbors = 95
Ave neighs/atom = 2.96875
Neighbor list builds = 1290
Dangerous builds = 0
Total wall time: 0:00:04
