LAMMPS (2 Sep 2026)
  using 1 OpenMP thread(s) per MPI task
# 2d rounded polygon bodies

variable    r     index 4
variable    steps index 100000
variable    T     index 0.5
variable    P     index 0.1
variable    seed  index 980411

units       lj
dimension   2

atom_style  body rounded/polygon 1 6
atom_modify map array
read_data   data.squares
Reading data file ...
  orthogonal box = (0 0 -0.5) to (12 12 0.5)
  2 by 2 by 1 MPI processor grid
  reading atoms ...
  2 atoms
  2 bodies
  read_data CPU = 0.001 seconds

replicate   $r $r 1
replicate   4 $r 1
replicate   4 4 1
Replication is creating a 4x4x1 = 16 times larger system...
  orthogonal box = (0 0 -0.5) to (48 48 0.5)
  2 by 2 by 1 MPI processor grid
  32 atoms
  replicate CPU = 0.000 seconds

velocity    all create $T ${seed} dist gaussian mom yes rot yes
velocity    all create 0.5 ${seed} dist gaussian mom yes rot yes
velocity    all create 0.5 980411 dist gaussian mom yes rot yes

variable cut_inner  equal 0.5
variable k_n        equal 100
variable k_na       equal 2
variable c_n        equal 1
variable c_t        equal 1
variable mu         equal 0.1
variable delta_ua   equal 0.5

pair_style body/rounded/polygon ${c_n} ${c_t} ${mu} ${delta_ua} ${cut_inner}
pair_style body/rounded/polygon 1 ${c_t} ${mu} ${delta_ua} ${cut_inner}
pair_style body/rounded/polygon 1 1 ${mu} ${delta_ua} ${cut_inner}
pair_style body/rounded/polygon 1 1 0.1 ${delta_ua} ${cut_inner}
pair_style body/rounded/polygon 1 1 0.1 0.5 ${cut_inner}
pair_style body/rounded/polygon 1 1 0.1 0.5 0.5
pair_coeff * * ${k_n} ${k_na}
pair_coeff * * 100 ${k_na}
pair_coeff * * 100 2

comm_modify vel yes

neighbor     0.5 bin
neigh_modify every 1 delay 0 check yes

timestep     0.001

#fix         1 all nve/body
#fix         1 all nvt/body temp $T $T 1.0
fix          1 all npt/body temp $T $T 1.0 x 0.001 $P 1.0              y 0.001 $P 1.0 couple xy fixedpoint 0 0 0
fix          1 all npt/body temp 0.5 $T 1.0 x 0.001 $P 1.0              y 0.001 $P 1.0 couple xy fixedpoint 0 0 0
fix          1 all npt/body temp 0.5 0.5 1.0 x 0.001 $P 1.0              y 0.001 $P 1.0 couple xy fixedpoint 0 0 0
fix          1 all npt/body temp 0.5 0.5 1.0 x 0.001 0.1 1.0              y 0.001 $P 1.0 couple xy fixedpoint 0 0 0
fix          1 all npt/body temp 0.5 0.5 1.0 x 0.001 0.1 1.0              y 0.001 0.1 1.0 couple xy fixedpoint 0 0 0

fix          2 all enforce2d

#compute      1 all body/local id 1 2 3
#dump         1 all local 100000 dump.polygon.* index c_1[1] c_1[2] c_1[3] c_1[4]

thermo_style custom step ke pe etotal press
thermo       1000

#dump	     2 all image 10000 image.*.jpg type type zoom 2.0 #             adiam 1.5 body type 0 0
#dump_modify  2 pad 6

run          ${steps}
run          100000
Generated 0 of 0 mixed pair_coeff terms from geometric mixing rule
Neighbor list info ...
  update: every = 1 steps, delay = 0 steps, check = yes
  max neighbors/atom: 2000, page size: 100000
  master list distance cutoff = 7.1568542
  ghost atom cutoff = 7.1568542
  binsize = 3.5784271, bins = 14 14 1
  1 neighbor lists, perpetual/occasional/extra = 1 0 0
  (1) pair body/rounded/polygon, perpetual
      attributes: half, newton on
      pair build: half/bin/atomonly/newton
      stencil: half/bin/2d
      bin: standard
Per MPI rank memory allocation (min/avg/max) = 7.13 | 7.13 | 7.13 Mbytes
   Step         KinEng         PotEng         TotEng         Press     
         0   0.484375       0              0.484375       0.0067274306 
      1000   0.39788609    -0.015804061    0.38208203     0.0018374328 
      2000   0.42858561    -0.019195803    0.40938981     0.0024012953 
      3000   0.57858516    -0.030344992    0.54824017     0.0015648124 
      4000   0.76400052    -0.046901641    0.71709888     0.0026563771 
      5000   0.86695225    -0.02743045     0.8395218      0.0060989235 
      6000   0.73436464     0.049084471    0.78344911     0.012525149  
      7000   0.53172163     0.20233719     0.73405882     0.0058909926 
      8000   0.65263141    -0.064224562    0.58840685     0.014643149  
      9000   0.85403354    -0.1648954      0.68913814     0.017928595  
     10000   0.74695811    -0.20395416     0.54300395     0.00095835144
     11000   0.59525911    -0.23296921     0.3622899      0.009295364  
     12000   0.52058793    -0.22782497     0.29276296    -0.0030678512 
     13000   0.64666346    -0.23045923     0.41620423     0.010439255  
     14000   0.71924517    -0.22677449     0.49247068     0.0079253822 
     15000   0.73549925    -0.19252257     0.54297667     0.016165479  
     16000   0.42692956    -0.23216683     0.19476273     0.010886967  
     17000   0.41594272    -0.26358054     0.15236218     0.00061847946
     18000   0.44794846    -0.3106471      0.13730137     0.019373754  
     19000   0.5109202     -0.28170874     0.22921146     0.013653295  
     20000   0.5798396     -0.26510315     0.31473645    -0.00068876187
     21000   0.5768665     -0.089964528    0.48690197    -0.010178269  
     22000   0.61190868    -0.40041155     0.21149713     0.01646917   
     23000   0.70587955    -0.27986258     0.42601698     0.018560185  
     24000   0.52568397    -0.16983412     0.35584985     0.018122737  
     25000   0.51343437     0.054386598    0.56782097     0.016844131  
     26000   0.30942432     0.016092604    0.32551692     0.016269996  
     27000   0.3571747     -0.045317288    0.31185741     0.045373463  
     28000   0.53784561    -0.075129177    0.46271643     0.044846288  
     29000   0.53644534    -0.26555353     0.27089181    -0.010734543  
     30000   0.62471461    -0.25045094     0.37426366     0.014589204  
     31000   0.62792634    -0.53637855     0.091547794    0.039132591  
     32000   0.64922444    -0.52521171     0.12401273     0.035314895  
     33000   0.63113179    -0.5711737      0.059958082    0.047372143  
     34000   0.65408379    -0.59962801     0.054455777    0.053697492  
     35000   0.68167018    -0.661611       0.020059183    0.0140731    
     36000   0.61573769    -0.60467812     0.011059567    0.052246849  
     37000   0.67419567    -0.48728355     0.18691212     0.031548966  
     38000   0.71456938    -0.021669105    0.69290027     0.021663179  
     39000   0.40865458    -0.52362715    -0.11497257     0.032949712  
     40000   0.36616367    -0.45868657    -0.0925229      0.033817869  
     41000   0.19134111    -0.38794227    -0.19660116     0.0333886    
     42000   0.32285995    -0.59211728    -0.26925733     0.024239156  
     43000   0.42620997    -0.06801255     0.35819743     0.031886003  
     44000   0.47474285    -0.51626855    -0.041525705   -0.017322103  
     45000   0.60891713    -0.7050728     -0.09615567     0.030378259  
     46000   0.82629398    -0.50888662     0.31740736     0.034653539  
     47000   0.80843526    -0.57485686     0.2335784      0.0086483067 
     48000   0.66691283    -0.47916086     0.18775196     0.052583075  
     49000   0.63619281    -0.17715178     0.45904103     0.055681865  
     50000   0.76819951    -0.0982516      0.66994791     0.01880168   
     51000   0.50023736    -0.13156547     0.36867189     0.048587153  
     52000   0.7303974      0.17560882     0.90600622     0.039989724  
     53000   0.86064717    -0.15521716     0.70543001     0.11158476   
     54000   0.47681712    -0.32589732     0.1509198      0.04169585   
     55000   0.37476458    -0.45667781    -0.08191323     0.043068369  
     56000   0.26759041    -0.36181001    -0.0942196      0.045647088  
     57000   0.30736154    -0.70133223    -0.3939707      0.065974847  
     58000   0.24759105    -0.71782098    -0.47022992     0.060193579  
     59000   0.42150614    -0.69657578    -0.27506965     0.06110412   
     60000   0.5479631     -0.31644009     0.23152302     0.068118212  
     61000   0.65755198    -0.67779449    -0.020242503    0.053164088  
     62000   0.56142287    -0.68280942    -0.12138655     0.083371962  
     63000   0.2268771     -0.70377209    -0.476895       0.032567497  
     64000   0.17279387    -0.76094381    -0.58814995     0.028704624  
     65000   0.11621894    -0.68818899    -0.57197005     0.065125051  
     66000   0.050687829   -0.70544721    -0.65475938     0.068356702  
     67000   0.067563426   -0.75737844    -0.68981502     0.047261208  
     68000   0.054282615   -0.68499452    -0.63071191     0.053322331  
     69000   0.045531974   -0.85080595    -0.80527398     0.034138519  
     70000   0.020902541   -0.75287184    -0.7319693      0.082880385  
     71000   0.008226897   -0.82261255    -0.81438565     0.018814974  
     72000   0.016457676   -0.79141549    -0.77495781     0.12948657   
     73000   0.011580514   -0.72877056    -0.71719004     0.12428929   
     74000   0.020403357   -0.86270648    -0.84230312     0.078117604  
     75000   0.016230194   -0.87570048    -0.85947029     0.035468082  
     76000   0.0077633529  -0.75218501    -0.74442165     0.099021561  
     77000   0.0147098     -0.84781564    -0.83310584     0.097720839  
     78000   0.013836314   -0.87198706    -0.85815075     0.05653634   
     79000   0.0051761818  -0.81525621    -0.81008003     0.049639326  
     80000   0.016725919   -0.74100986    -0.72428394     0.031163369  
     81000   0.015925441   -0.8787671     -0.86284166     0.0085451484 
     82000   0.0064114308  -0.80493575    -0.79852432     0.039353855  
     83000   0.028063544   -0.80758153    -0.77951798     0.1382726    
     84000   0.01062961    -0.83538191    -0.8247523      0.089902937  
     85000   0.0078591171  -0.78370755    -0.77584843     0.095794443  
     86000   0.012175746   -0.8843446     -0.87216885     0.060014105  
     87000   0.0099492472  -0.83715645    -0.8272072      0.035811559  
     88000   0.0082346538  -0.72602268    -0.71778803     0.11555669   
     89000   0.017873789   -0.82590348    -0.80802969     0.1633752    
     90000   0.016046676   -0.8501952     -0.83414853     0.014187021  
     91000   0.021731839   -0.75594405    -0.73421221     0.14791495   
     92000   0.0138923     -0.8217854     -0.8078931      0.070189843  
     93000   0.011498455   -0.8592185     -0.84772004     0.12180841   
     94000   0.0028911802  -0.77701116    -0.77411998     0.12467808   
     95000   0.001307721   -0.69863859    -0.69733087     0.11217686   
     96000   0.0081744745  -0.72580665    -0.71763218     0.098238656  
     97000   0.019364343   -0.7505626     -0.73119826     0.086251017  
     98000   0.076251964   -0.86803819    -0.79178623     0.067847997  
     99000   0.28400323    -0.82850913    -0.54450589     0.093608763  
    100000   0.93883502    -0.90152821     0.037306819    0.041919598  
Loop time of 2.63549 on 4 procs for 100000 steps with 32 atoms

Performance: 3278326.254 tau/day, 37943.591 timesteps/s, 1.214 Matom-step/s
97.8% CPU use with 4 MPI tasks x 1 OpenMP threads

MPI task timing breakdown:
Section |  min time  |  avg time  |  max time  |%varavg| %total
---------------------------------------------------------------
Pair    | 1.1664     | 1.1727     | 1.1773     |   0.4 | 44.50
Neigh   | 0.0012052  | 0.0012547  | 0.0013326  |   0.1 |  0.05
Comm    | 0.45956    | 0.46337    | 0.46908    |   0.5 | 17.58
Output  | 0.00082855 | 0.00087052 | 0.00093941 |   0.0 |  0.03
Modify  | 0.80809    | 0.82643    | 0.83476    |   1.2 | 31.36
Other   |            | 0.1709     |            |       |  6.48

Nlocal:              8 ave           9 max           7 min
Histogram: 2 0 0 0 0 0 0 0 0 2
Nghost:             24 ave          25 max          23 min
Histogram: 2 0 0 0 0 0 0 0 0 2
Neighs:          22.25 ave          26 max          21 min
Histogram: 3 0 0 0 0 0 0 0 0 1

Total # of neighbors = 89
Ave neighs/atom = 2.78125
Neighbor list builds = 1321
Dangerous builds = 0
Total wall time: 0:00:02
