LAMMPS (2 Sep 2026)
  using 1 OpenMP thread(s) per MPI task
# 2d rounded polygon bodies

variable    r     index 4
variable    steps index 100000
variable    T     index 0.5
variable    P     index 0.1
variable    seed  index 980411

units       lj
dimension   2

atom_style  body rounded/polygon 1 6
atom_modify map array
read_data   data.squares
Reading data file ...
  orthogonal box = (0 0 -0.5) to (12 12 0.5)
  1 by 1 by 1 MPI processor grid
  reading atoms ...
  2 atoms
  2 bodies
  read_data CPU = 0.000 seconds

replicate   $r $r 1
replicate   4 $r 1
replicate   4 4 1
Replication is creating a 4x4x1 = 16 times larger system...
  orthogonal box = (0 0 -0.5) to (48 48 0.5)
  1 by 1 by 1 MPI processor grid
  32 atoms
  replicate CPU = 0.000 seconds

velocity    all create $T ${seed} dist gaussian mom yes rot yes
velocity    all create 0.5 ${seed} dist gaussian mom yes rot yes
velocity    all create 0.5 980411 dist gaussian mom yes rot yes

change_box  all boundary p f p
Changing box ...

variable cut_inner  equal 0.5
variable k_n        equal 100
variable k_na       equal 2
variable c_n        equal 0.1
variable c_t        equal 0.1
variable mu         equal 0.1
variable delta_ua   equal 0.5

pair_style body/rounded/polygon ${c_n} ${c_t} ${mu} ${delta_ua} ${cut_inner}
pair_style body/rounded/polygon 0.1 ${c_t} ${mu} ${delta_ua} ${cut_inner}
pair_style body/rounded/polygon 0.1 0.1 ${mu} ${delta_ua} ${cut_inner}
pair_style body/rounded/polygon 0.1 0.1 0.1 ${delta_ua} ${cut_inner}
pair_style body/rounded/polygon 0.1 0.1 0.1 0.5 ${cut_inner}
pair_style body/rounded/polygon 0.1 0.1 0.1 0.5 0.5
pair_coeff * * ${k_n} ${k_na}
pair_coeff * * 100 ${k_na}
pair_coeff * * 100 2

comm_modify vel yes

neighbor     0.5 bin
neigh_modify every 1 delay 0 check yes

timestep     0.001

#fix         1 all nve/body
#fix         1 all nvt/body temp $T $T 1.0
fix          1 all npt/body temp $T $T 1.0 x 0.001 $P 1.0 fixedpoint 0 0 0
fix          1 all npt/body temp 0.5 $T 1.0 x 0.001 $P 1.0 fixedpoint 0 0 0
fix          1 all npt/body temp 0.5 0.5 1.0 x 0.001 $P 1.0 fixedpoint 0 0 0
fix          1 all npt/body temp 0.5 0.5 1.0 x 0.001 0.1 1.0 fixedpoint 0 0 0

fix          2 all enforce2d
fix          3 all wall/body/polygon 2000 50 50 yplane 0.0 48.0

#compute      1 all body/local id 1 2 3
#dump         1 all local 100000 dump.polygon.* index c_1[1] c_1[2] c_1[3] c_1[4]

thermo_style custom step ke pe etotal press
thermo       1000

#dump	     2 all image 10000 image.*.jpg type type zoom 2.0 #             adiam 1.5 body type 0 0
#dump_modify  2 pad 6

run          ${steps}
run          100000
Generated 0 of 0 mixed pair_coeff terms from geometric mixing rule
Neighbor list info ...
  update: every = 1 steps, delay = 0 steps, check = yes
  max neighbors/atom: 2000, page size: 100000
  master list distance cutoff = 7.1568542
  ghost atom cutoff = 7.1568542
  binsize = 3.5784271, bins = 14 14 1
  1 neighbor lists, perpetual/occasional/extra = 1 0 0
  (1) pair body/rounded/polygon, perpetual
      attributes: half, newton on
      pair build: half/bin/atomonly/newton
      stencil: half/bin/2d
      bin: standard
Per MPI rank memory allocation (min/avg/max) = 7.375 | 7.375 | 7.375 Mbytes
   Step         KinEng         PotEng         TotEng         Press     
         0   0.484375       0              0.484375       0.0067274306 
      1000   0.51029595    -0.0073843491   0.5029116      0.010439673  
      2000   0.55744774    -0.014081982    0.54336576     0.003364633  
      3000   0.75443509    -0.017074633    0.73736046     0.0078528842 
      4000   0.74830585    -0.024276659    0.72402919     0.0069650595 
      5000   0.56179386    -0.008574589    0.55321927     0.0081508472 
      6000   0.48247693     0.0024321919   0.48490913     0.0078939437 
      7000   0.67127237     0.0064239208   0.67769629     0.015790851  
      8000   0.45898913    -0.013517434    0.44547169     0.0016378868 
      9000   0.47296283    -0.012838678    0.46012415     0.0048484528 
     10000   0.52069954    -0.025118082    0.49558146     0.001688059  
     11000   0.45743294    -0.029172896    0.42826004     0.0022286653 
     12000   0.46257532    -0.024750582    0.43782474     0.0041762385 
     13000   0.56683141    -0.036826615    0.5300048      0.013479758  
     14000   0.64602577    -0.014034304    0.63199147     0.018442431  
     15000   0.62703571     0.0052158253   0.63225154     0.015146183  
     16000   0.52140472    -0.038081101    0.48332362     0.018269061  
     17000   0.50397255    -0.035203363    0.46876919     0.0013669099 
     18000   0.51983266    -0.064491345    0.45534132     0.0031429873 
     19000   0.53698475    -0.055858896    0.48112586     0.017326409  
     20000   0.47747623    -0.02627179     0.45120444     0.00010209782
     21000   0.43026986     0.026820128    0.45708999     0.044492404  
     22000   0.40724754    -0.050340538    0.356907       0.035126116  
     23000   0.41824487    -0.09311567     0.3251292      0.023196772  
     24000   0.29992139    -0.094736422    0.20518497     0.00026215131
     25000   0.4613734     -0.12433058     0.33704282     0.022655329  
     26000   0.52204252    -0.093800234    0.42824228     0.013852105  
     27000   0.46418497    -0.13627021     0.32791476     0.0062098382 
     28000   0.50745568    -0.12051481     0.38694087     0.0098092642 
     29000   0.64085194    -0.086367624    0.55448432     0.0081980023 
     30000   0.66492064    -0.10316152     0.56175912     0.026376222  
     31000   0.43176337    -0.087371794    0.34439157     0.045096508  
     32000   0.4489814     -0.038328599    0.4106528      0.029397898  
     33000   0.59158501    -0.1235254      0.46805961    -0.0091364704 
     34000   0.45481734    -0.13034319     0.32447415     0.019465787  
     35000   0.39139568    -0.073953046    0.31744263     0.0477065    
     36000   0.52015086    -0.081726024    0.43842484    -0.0052393254 
     37000   0.55256593    -0.056942979    0.49562295     0.022395199  
     38000   0.42299926    -0.090158852    0.33284041     0.017792394  
     39000   0.61645265    -0.10551575     0.5109369      0.0092613548 
     40000   0.6132573     -0.095004682    0.51825262     0.015533195  
     41000   0.47835798    -0.017486128    0.46087185     0.09171192   
     42000   0.6326664     -0.1413385      0.4913279      0.036855924  
     43000   0.42081078    -0.1235874      0.29722338     0.051252983  
     44000   0.54303122    -0.12238061     0.42065061     0.083264563  
     45000   0.54839103    -0.14878443     0.3996066      0.022417986  
     46000   0.5397263     -0.14059504     0.39913126     0.031047503  
     47000   0.64672972    -0.14083553     0.50589419     0.0079977875 
     48000   0.73784803    -0.12935203     0.60849599     0.059543433  
     49000   0.47802553    -0.18793326     0.29009227    -0.00095032595
     50000   0.32212744    -0.12032413     0.2018033      0.036878651  
     51000   0.34628307    -0.23794153     0.10834155     0.035925984  
     52000   0.48558195    -0.26588305     0.21969891     0.03777511   
     53000   0.52591019    -0.22045797     0.30545222     0.038898593  
     54000   0.5962304     -0.22518584     0.37104455     0.081858691  
     55000   0.53194955    -0.20246718     0.32948237    -0.034213353  
     56000   0.6035852     -0.25538027     0.34820493     0.0084762645 
     57000   0.54110907    -0.19493343     0.34617564    -0.033541429  
     58000   0.62202883    -0.21293341     0.40909542     0.036329418  
     59000   0.73579716    -0.25279943     0.48299773     0.069270893  
     60000   0.74838353    -0.28207961     0.46630392     0.01824104   
     61000   0.56475469    -0.22057552     0.34417918     0.1261757    
     62000   0.38374367    -0.26073171     0.12301196     0.15252306   
     63000   0.52931166    -0.37639834     0.15291331     0.008587825  
     64000   0.63863147    -0.35525852     0.28337295     0.071549037  
     65000   0.74320267    -0.37510934     0.36809333     0.071125066  
     66000   0.71978645    -0.40491857     0.31486788     0.078662176  
     67000   0.60643902    -0.38824803     0.21819099     0.065446031  
     68000   0.65185923    -0.37466197     0.27719727    -0.04624685   
     69000   0.54839347    -0.39243432     0.15595916     0.06822576   
     70000   0.51775052    -0.41140733     0.10634319     0.11584472   
     71000   0.69389368    -0.36925671     0.32463697     0.044019375  
     72000   0.77445412    -0.37217446     0.40227966    -0.042248202  
     73000   0.64122908    -0.27145817     0.36977091     0.059380791  
     74000   0.59725731    -0.26986522     0.32739209    -0.0046048928 
     75000   0.70641306    -0.26037538     0.44603768     0.059585236  
     76000   0.80835624    -0.28605078     0.52230546     0.013459776  
     77000   0.58729744    -0.29423516     0.29306228     0.012530535  
     78000   0.50826856    -0.32671209     0.18155646     0.048938335  
     79000   0.54369319    -0.36290469     0.1807885     -0.053548952  
     80000   0.59779994    -0.27536598     0.32243396     0.079432792  
     81000   0.64075575    -0.27485812     0.36589763     0.11512591   
     82000   0.71489955    -0.24444821     0.47045134     0.11520273   
     83000   0.64339205    -0.26254824     0.38084381     0.062742228  
     84000   0.50517472    -0.23029173     0.274883       0.063198203  
     85000   0.45652723    -0.3084975      0.14802974     0.12296815   
     86000   0.67061708    -0.38771824     0.28289884     0.037660903  
     87000   0.56191449    -0.4316591      0.13025538     0.0060690592 
     88000   0.68309334    -0.38046687     0.30262647     0.024518843  
     89000   0.82854722    -0.41555491     0.41299231     0.12547829   
     90000   0.64371289    -0.40068906     0.24302383     0.092214994  
     91000   0.5237566     -0.53112723    -0.0073706244  -0.10370883   
     92000   0.55370697    -0.57321106    -0.019504094   -0.0041019403 
     93000   0.66605585    -0.47391758     0.19213827     0.090512992  
     94000   0.66486115    -0.51403785     0.1508233      0.18012402   
     95000   0.6309021     -0.57398678     0.056915316    0.024200987  
     96000   0.73277388    -0.64552308     0.087250801    0.07412825   
     97000   0.90909042    -0.6661939      0.24289652     0.10001498   
     98000   0.71644509    -0.72135785    -0.0049127646  -0.039872001  
     99000   0.64674234    -0.69916741    -0.052425067   -0.0042599475 
    100000   0.64992296    -0.81136235    -0.1614394      0.02696311   
Loop time of 2.36637 on 1 procs for 100000 steps with 32 atoms

Performance: 3651163.267 tau/day, 42258.834 timesteps/s, 1.352 Matom-step/s
98.0% CPU use with 1 MPI tasks x 1 OpenMP threads

MPI task timing breakdown:
Section |  min time  |  avg time  |  max time  |%varavg| %total
---------------------------------------------------------------
Pair    | 1.3414     | 1.3414     | 1.3414     |   0.0 | 56.68
Neigh   | 0.0061219  | 0.0061219  | 0.0061219  |   0.0 |  0.26
Comm    | 0.061548   | 0.061548   | 0.061548   |   0.0 |  2.60
Output  | 0.00052672 | 0.00052672 | 0.00052672 |   0.0 |  0.02
Modify  | 0.92212    | 0.92212    | 0.92212    |   0.0 | 38.97
Other   |            | 0.0347     |            |       |  1.47

Nlocal:             32 ave          32 max          32 min
Histogram: 1 0 0 0 0 0 0 0 0 0
Nghost:             25 ave          25 max          25 min
Histogram: 1 0 0 0 0 0 0 0 0 0
Neighs:             81 ave          81 max          81 min
Histogram: 1 0 0 0 0 0 0 0 0 0

Total # of neighbors = 81
Ave neighs/atom = 2.53125
Neighbor list builds = 2975
Dangerous builds = 0
Total wall time: 0:00:02
