LAMMPS (2 Sep 2026)
  using 1 OpenMP thread(s) per MPI task
# 2d rounded polygon bodies

variable    r     index 4
variable    steps index 100000
variable    T     index 0.5
variable    P     index 0.1
variable    seed  index 980411

units       lj
dimension   2

atom_style  body rounded/polygon 1 6
atom_modify map array
read_data   data.squares
Reading data file ...
  orthogonal box = (0 0 -0.5) to (12 12 0.5)
  2 by 2 by 1 MPI processor grid
  reading atoms ...
  2 atoms
  2 bodies
  read_data CPU = 0.001 seconds

replicate   $r $r 1
replicate   4 $r 1
replicate   4 4 1
Replication is creating a 4x4x1 = 16 times larger system...
  orthogonal box = (0 0 -0.5) to (48 48 0.5)
  2 by 2 by 1 MPI processor grid
  32 atoms
  replicate CPU = 0.001 seconds

velocity    all create $T ${seed} dist gaussian mom yes rot yes
velocity    all create 0.5 ${seed} dist gaussian mom yes rot yes
velocity    all create 0.5 980411 dist gaussian mom yes rot yes

change_box  all boundary p f p
Changing box ...

variable cut_inner  equal 0.5
variable k_n        equal 100
variable k_na       equal 2
variable c_n        equal 0.1
variable c_t        equal 0.1
variable mu         equal 0.1
variable delta_ua   equal 0.5

pair_style body/rounded/polygon ${c_n} ${c_t} ${mu} ${delta_ua} ${cut_inner}
pair_style body/rounded/polygon 0.1 ${c_t} ${mu} ${delta_ua} ${cut_inner}
pair_style body/rounded/polygon 0.1 0.1 ${mu} ${delta_ua} ${cut_inner}
pair_style body/rounded/polygon 0.1 0.1 0.1 ${delta_ua} ${cut_inner}
pair_style body/rounded/polygon 0.1 0.1 0.1 0.5 ${cut_inner}
pair_style body/rounded/polygon 0.1 0.1 0.1 0.5 0.5
pair_coeff * * ${k_n} ${k_na}
pair_coeff * * 100 ${k_na}
pair_coeff * * 100 2

comm_modify vel yes

neighbor     0.5 bin
neigh_modify every 1 delay 0 check yes

timestep     0.001

#fix         1 all nve/body
#fix         1 all nvt/body temp $T $T 1.0
fix          1 all npt/body temp $T $T 1.0 x 0.001 $P 1.0 fixedpoint 0 0 0
fix          1 all npt/body temp 0.5 $T 1.0 x 0.001 $P 1.0 fixedpoint 0 0 0
fix          1 all npt/body temp 0.5 0.5 1.0 x 0.001 $P 1.0 fixedpoint 0 0 0
fix          1 all npt/body temp 0.5 0.5 1.0 x 0.001 0.1 1.0 fixedpoint 0 0 0

fix          2 all enforce2d
fix          3 all wall/body/polygon 2000 50 50 yplane 0.0 48.0

#compute      1 all body/local id 1 2 3
#dump         1 all local 100000 dump.polygon.* index c_1[1] c_1[2] c_1[3] c_1[4]

thermo_style custom step ke pe etotal press
thermo       1000

#dump	     2 all image 10000 image.*.jpg type type zoom 2.0 #             adiam 1.5 body type 0 0
#dump_modify  2 pad 6

run          ${steps}
run          100000
Generated 0 of 0 mixed pair_coeff terms from geometric mixing rule
Neighbor list info ...
  update: every = 1 steps, delay = 0 steps, check = yes
  max neighbors/atom: 2000, page size: 100000
  master list distance cutoff = 7.1568542
  ghost atom cutoff = 7.1568542
  binsize = 3.5784271, bins = 14 14 1
  1 neighbor lists, perpetual/occasional/extra = 1 0 0
  (1) pair body/rounded/polygon, perpetual
      attributes: half, newton on
      pair build: half/bin/atomonly/newton
      stencil: half/bin/2d
      bin: standard
Per MPI rank memory allocation (min/avg/max) = 7.379 | 7.379 | 7.379 Mbytes
   Step         KinEng         PotEng         TotEng         Press     
         0   0.484375       0              0.484375       0.0067274306 
      1000   0.51029595    -0.0073843491   0.5029116      0.010439673  
      2000   0.55744774    -0.014081982    0.54336576     0.003364633  
      3000   0.75443509    -0.017074633    0.73736046     0.0078528842 
      4000   0.74830585    -0.024276659    0.72402919     0.0069650595 
      5000   0.56179386    -0.0085745891   0.55321927     0.0081508472 
      6000   0.48247693     0.0024321934   0.48490913     0.007893944  
      7000   0.67127236     0.0064239196   0.67769628     0.01579085   
      8000   0.45898913    -0.013517438    0.44547169     0.0016378866 
      9000   0.47296282    -0.012838693    0.46012412     0.0048484403 
     10000   0.52069938    -0.025118185    0.4955812      0.0016880522 
     11000   0.45743064    -0.029171817    0.42825882     0.0022298093 
     12000   0.46259861    -0.024775821    0.43782279     0.0041610161 
     13000   0.5653258     -0.043845652    0.52148015     0.0090352503 
     14000   0.65699889    -0.0050166074   0.65198229     0.022151511  
     15000   0.69742973    -0.033267254    0.66416248     0.0091829561 
     16000   0.54179687    -0.040577956    0.50121892     0.0046471232 
     17000   0.49506346    -0.041817148    0.45324631     0.010585696  
     18000   0.61322473    -0.040152902    0.57307183     0.012072526  
     19000   0.65389516    -0.048372953    0.60552221     0.012471106  
     20000   0.62934924    -0.068453276    0.56089596     0.016118003  
     21000   0.43517077    -0.049382712    0.38578806     0.023806447  
     22000   0.39905906    -0.019611295    0.37944776     0.0209532    
     23000   0.55297061    -0.077422293    0.47554831     0.015183024  
     24000   0.58503906    -0.026480757    0.5585583      0.048563344  
     25000   0.6195076     -0.076426091    0.54308151     0.027239896  
     26000   0.60826272    -0.075215595    0.53304713     0.024080668  
     27000   0.56700515    -0.068425391    0.49857976     0.0086701771 
     28000   0.4774606     -0.098325484    0.37913512     0.023057282  
     29000   0.41897979    -0.070987423    0.34799237     0.037558563  
     30000   0.49430799    -0.033859643    0.46044835     0.063758594  
     31000   0.57171972    -0.077257272    0.49446245    -0.0063823261 
     32000   0.60856321    -0.16432306     0.44424015     0.02342073   
     33000   0.58428316    -0.1634085      0.42087466     0.029102214  
     34000   0.64282763    -0.11731091     0.52551671     0.020024823  
     35000   0.60271787    -0.14552508     0.45719279     0.018299182  
     36000   0.48632546    -0.097341813    0.38898364     0.027369973  
     37000   0.60110772    -0.13531288     0.46579484     0.030094874  
     38000   0.62095875    -0.089270229    0.53168852     0.018888342  
     39000   0.61953267    -0.12389033     0.49564235     0.050166356  
     40000   0.41259407    -0.13651765     0.27607642     0.031262698  
     41000   0.5296787     -0.17733041     0.3523483      0.01233376   
     42000   0.51129848    -0.17160251     0.33969597    -0.0025248223 
     43000   0.58864633    -0.13592322     0.45272311     0.031381633  
     44000   0.56328682    -0.10180354     0.46148328     0.039859507  
     45000   0.68857787    -0.1341017      0.55447617     0.037866331  
     46000   0.54346505    -0.12242701     0.42103804     0.013095962  
     47000   0.54748032    -0.12566183     0.42181849     0.010583234  
     48000   0.58572669    -0.11551067     0.47021602     0.015307055  
     49000   0.64104598    -0.12120231     0.51984367     0.0076948723 
     50000   0.66749008    -0.1736606      0.49382948     0.0098873497 
     51000   0.51385905    -0.13667735     0.3771817      0.024219447  
     52000   0.83814738    -0.14611107     0.69203631     0.066609582  
     53000   0.70602952    -0.12321533     0.58281419     0.048069134  
     54000   0.56378257    -0.15137245     0.41241013     0.046215924  
     55000   0.68982301    -0.18245413     0.50736889     0.069485251  
     56000   0.60637139    -0.23070844     0.37566295     0.022927929  
     57000   0.6507085     -0.24862617     0.40208233     0.034197324  
     58000   0.83366208    -0.20643584     0.62722624     0.054762445  
     59000   0.84375795    -0.25021526     0.59354269     0.057151496  
     60000   0.62623045    -0.30838285     0.3178476      0.07649259   
     61000   0.55248778    -0.30885131     0.24363647    -0.0091057763 
     62000   0.62974127    -0.29767259     0.33206867     0.12011002   
     63000   0.72293879    -0.27092655     0.45201224     0.0056746266 
     64000   0.69959988    -0.30601032     0.39358956     0.0049029874 
     65000   0.56541424    -0.38464541     0.18076883     0.021649694  
     66000   0.47760879    -0.1070766      0.37053219    -0.12478834   
     67000   0.59877305    -0.33322868     0.26554438    -0.0044308587 
     68000   0.64773978    -0.32623736     0.32150243    -0.024105963  
     69000   0.69065704    -0.30644642     0.38421062     0.024680783  
     70000   0.74145693    -0.35840374     0.38305319     0.036198542  
     71000   0.61600426    -0.42554518     0.19045907    -0.00029600742
     72000   0.4471332     -0.38658165     0.060551551    0.082609224  
     73000   0.69398729    -0.48673425     0.20725304     0.030788128  
     74000   0.77500661    -0.49590767     0.27909894     0.034145302  
     75000   0.68910343    -0.45798218     0.23112125     0.010266882  
     76000   0.62368928    -0.29448129     0.32920799     0.017592681  
     77000   0.73048209    -0.11392369     0.6165584      0.13830345   
     78000   0.77246974    -0.40491699     0.36755275     0.029547206  
     79000   0.69069791    -0.44155034     0.24914757     0.08923096   
     80000   0.59391584    -0.33523188     0.25868396     0.10513263   
     81000   0.58228012    -0.39262353     0.18965659    -0.019215306  
     82000   0.84792883    -0.40784308     0.44008575     0.031883818  
     83000   0.71918794    -0.43677872     0.28240922     0.029438458  
     84000   0.59068799    -0.45801517     0.13267283     0.012167753  
     85000   0.63223335    -0.44534654     0.18688681     0.053268538  
     86000   0.81430825    -0.41022467     0.40408358     0.058104286  
     87000   0.74551888    -0.43065641     0.31486247     0.11364238   
     88000   0.64212121    -0.4917785      0.15034271     0.10641643   
     89000   0.60655714    -0.51481756     0.091739575   -0.0065607523 
     90000   0.74177401    -0.51264063     0.22913338     0.14390095   
     91000   0.89815936    -0.5438783      0.35428106     0.032634742  
     92000   0.68174325    -0.50496279     0.17678046     0.044344274  
     93000   0.62055823    -0.49034373     0.13021449     0.15750205   
     94000   0.65653755    -0.1872222      0.46931535     0.095986321  
     95000   0.79356502    -0.39189378     0.40167124     0.12027157   
     96000   0.71828222    -0.41346506     0.30481717    -0.0025627013 
     97000   0.54332129    -0.44530276     0.098018537    0.072504026  
     98000   0.5119073     -0.48624008     0.025667219    0.029055685  
     99000   0.62110776    -0.50604424     0.11506352    -0.0029692183 
    100000   0.61782821    -0.4470974      0.17073081     0.10511368   
Loop time of 2.67279 on 4 procs for 100000 steps with 32 atoms

Performance: 3232576.782 tau/day, 37414.083 timesteps/s, 1.197 Matom-step/s
98.2% CPU use with 4 MPI tasks x 1 OpenMP threads

MPI task timing breakdown:
Section |  min time  |  avg time  |  max time  |%varavg| %total
---------------------------------------------------------------
Pair    | 0.74591    | 0.7491     | 0.7555     |   0.4 | 28.03
Neigh   | 0.0021227  | 0.002415   | 0.0026954  |   0.5 |  0.09
Comm    | 0.4316     | 0.45061    | 0.46559    |   2.2 | 16.86
Output  | 0.001069   | 0.0011032  | 0.0011753  |   0.1 |  0.04
Modify  | 1.2315     | 1.2712     | 1.2964     |   2.2 | 47.56
Other   |            | 0.1984     |            |       |  7.42

Nlocal:              8 ave           9 max           7 min
Histogram: 2 0 0 0 0 0 0 0 0 2
Nghost:           17.5 ave          18 max          17 min
Histogram: 2 0 0 0 0 0 0 0 0 2
Neighs:          20.25 ave          25 max          14 min
Histogram: 1 0 0 1 0 0 0 0 0 2

Total # of neighbors = 81
Ave neighs/atom = 2.53125
Neighbor list builds = 2779
Dangerous builds = 0
Total wall time: 0:00:02
