LAMMPS (2 Sep 2026)
  using 1 OpenMP thread(s) per MPI task
# 2d rounded polygon bodies

variable    r     index 4
variable    steps index 100000
variable    T     index 0.5
variable    P     index 0.1
variable    seed  index 980411

units       lj
dimension   2

atom_style  body rounded/polygon 1 6
atom_modify map array
read_data   data.squares
Reading data file ...
  orthogonal box = (0 0 -0.5) to (12 12 0.5)
  1 by 1 by 1 MPI processor grid
  reading atoms ...
  2 atoms
  2 bodies
  read_data CPU = 0.000 seconds

replicate   $r $r 1
replicate   4 $r 1
replicate   4 4 1
Replication is creating a 4x4x1 = 16 times larger system...
  orthogonal box = (0 0 -0.5) to (48 48 0.5)
  1 by 1 by 1 MPI processor grid
  32 atoms
  replicate CPU = 0.000 seconds

velocity    all create $T ${seed} dist gaussian mom yes rot yes
velocity    all create 0.5 ${seed} dist gaussian mom yes rot yes
velocity    all create 0.5 980411 dist gaussian mom yes rot yes

variable cut_inner  equal 0.5
variable k_n        equal 100
variable k_na       equal 2
variable c_n        equal 1
variable c_t        equal 1
variable mu         equal 0.1
variable delta_ua   equal 0.5

pair_style body/rounded/polygon ${c_n} ${c_t} ${mu} ${delta_ua} ${cut_inner}
pair_style body/rounded/polygon 1 ${c_t} ${mu} ${delta_ua} ${cut_inner}
pair_style body/rounded/polygon 1 1 ${mu} ${delta_ua} ${cut_inner}
pair_style body/rounded/polygon 1 1 0.1 ${delta_ua} ${cut_inner}
pair_style body/rounded/polygon 1 1 0.1 0.5 ${cut_inner}
pair_style body/rounded/polygon 1 1 0.1 0.5 0.5
pair_coeff * * ${k_n} ${k_na}
pair_coeff * * 100 ${k_na}
pair_coeff * * 100 2

comm_modify vel yes

neighbor     0.5 bin
neigh_modify every 1 delay 0 check yes

timestep     0.001

#fix         1 all nve/body
#fix         1 all nvt/body temp $T $T 1.0
fix          1 all npt/body temp $T $T 1.0 x 0.001 $P 1.0              y 0.001 $P 1.0 couple xy fixedpoint 0 0 0
fix          1 all npt/body temp 0.5 $T 1.0 x 0.001 $P 1.0              y 0.001 $P 1.0 couple xy fixedpoint 0 0 0
fix          1 all npt/body temp 0.5 0.5 1.0 x 0.001 $P 1.0              y 0.001 $P 1.0 couple xy fixedpoint 0 0 0
fix          1 all npt/body temp 0.5 0.5 1.0 x 0.001 0.1 1.0              y 0.001 $P 1.0 couple xy fixedpoint 0 0 0
fix          1 all npt/body temp 0.5 0.5 1.0 x 0.001 0.1 1.0              y 0.001 0.1 1.0 couple xy fixedpoint 0 0 0

fix          2 all enforce2d

#compute      1 all body/local id 1 2 3
#dump         1 all local 100000 dump.polygon.* index c_1[1] c_1[2] c_1[3] c_1[4]

thermo_style custom step ke pe etotal press
thermo       1000

#dump	     2 all image 10000 image.*.jpg type type zoom 2.0 #             adiam 1.5 body type 0 0
#dump_modify  2 pad 6

run          ${steps}
run          100000
Generated 0 of 0 mixed pair_coeff terms from geometric mixing rule
Neighbor list info ...
  update: every = 1 steps, delay = 0 steps, check = yes
  max neighbors/atom: 2000, page size: 100000
  master list distance cutoff = 7.1568542
  ghost atom cutoff = 7.1568542
  binsize = 3.5784271, bins = 14 14 1
  1 neighbor lists, perpetual/occasional/extra = 1 0 0
  (1) pair body/rounded/polygon, perpetual
      attributes: half, newton on
      pair build: half/bin/atomonly/newton
      stencil: half/bin/2d
      bin: standard
Per MPI rank memory allocation (min/avg/max) = 7.137 | 7.137 | 7.137 Mbytes
   Step         KinEng         PotEng         TotEng         Press     
         0   0.484375       0              0.484375       0.0067274306 
      1000   0.39788609    -0.015804061    0.38208203     0.0018374328 
      2000   0.42858561    -0.019195803    0.40938981     0.0024012953 
      3000   0.57858516    -0.030344992    0.54824017     0.0015648124 
      4000   0.76400052    -0.046901641    0.71709888     0.0026563771 
      5000   0.86695225    -0.02743045     0.8395218      0.0060989235 
      6000   0.73436464     0.049084471    0.78344911     0.012525149  
      7000   0.53172163     0.20233719     0.73405882     0.0058909926 
      8000   0.65263141    -0.064224562    0.58840685     0.014643149  
      9000   0.85459939    -0.16495366     0.68964573     0.017428679  
     10000   0.74666009    -0.19884545     0.54781464     0.00063881042
     11000   0.60340034    -0.24102165     0.36237868     0.0079162568 
     12000   0.4922205     -0.21059716     0.28162334     0.02160629   
     13000   0.69364787    -0.24949942     0.44414845     0.020038771  
     14000   0.75014156    -0.18491069     0.56523087     0.013576021  
     15000   0.68861331    -0.18362486     0.50498845     0.022036642  
     16000   0.50893262    -0.18845792     0.3204747      0.007420715  
     17000   0.416177       0.11707094     0.53324795     0.030378226  
     18000   0.42301433     0.075378185    0.49839252     0.016762257  
     19000   0.61382905     0.04952699     0.66335604     0.025293594  
     20000   0.55915166    -0.18875378     0.37039788     0.040047651  
     21000   0.61170764    -0.29370817     0.31799947     0.024452614  
     22000   0.65442167    -0.026106403    0.62831526     0.028858623  
     23000   0.76676003    -0.58075763     0.1860024     -0.01046948   
     24000   0.59831041    -0.57208789     0.026222527    0.028564703  
     25000   0.62697376    -0.64387762    -0.016903864    0.02357379   
     26000   0.55875147    -0.59996468    -0.04121321     0.025837488  
     27000   0.54948034    -0.59030537    -0.040825028    0.031230652  
     28000   0.63886365    -0.5000253      0.13883835     0.04793856   
     29000   0.61115456    -0.65218849    -0.041033936    0.048670114  
     30000   0.32775276    -0.56042287    -0.23267011     0.028451468  
     31000   0.28277899    -0.49843001    -0.21565102     0.039902507  
     32000   0.36513551    -0.63700019    -0.27186468     0.033428319  
     33000   0.58448098    -0.56509236     0.019388625    0.032609532  
     34000   0.8531281     -0.40101856     0.45210954     0.005498819  
     35000   0.75034718    -0.65503603     0.095311149    0.011835614  
     36000   0.55300131    -0.56998529    -0.016983976    0.042653384  
     37000   0.69882921     0.045716371    0.74454558     0.036226345  
     38000   0.6469262     -0.34642915     0.30049705     0.02816789   
     39000   0.49359355    -0.34586458     0.14772898     0.061403973  
     40000   0.52214337    -0.46417769     0.057965683    0.030683892  
     41000   0.57598907    -0.3664627      0.20952637     0.06313155   
     42000   0.42453233    -0.49708619    -0.072553857    0.079562237  
     43000   0.65545155    -0.6748357     -0.019384158   -0.036288126  
     44000   0.7500174     -0.58396868     0.16604871     0.063689011  
     45000   0.69052137    -0.65878829     0.031733076    0.066360501  
     46000   0.39403216    -0.65812165    -0.26408949     0.067380646  
     47000   0.43548194    -0.59864968    -0.16316774     0.046967764  
     48000   0.32009688    -0.60583302    -0.28573615     0.056060037  
     49000   0.36964826    -0.041016981    0.32863128     0.068852608  
     50000   0.38140762    -0.34081081     0.040596804    0.099835437  
     51000   0.55065316    -0.50850853     0.042144635    0.033942952  
     52000   0.53072493    -0.68173664    -0.15101171     0.046680717  
     53000   0.44398254    -0.6157278     -0.17174525     0.04465829   
     54000   0.56623846     0.3734246      0.93966306     0.077799491  
     55000   0.58363883    -0.64910919    -0.06547036     0.053797433  
     56000   0.40587006    -0.65577427    -0.24990422     0.053722585  
     57000   0.61083166    -0.67014852    -0.059316851    0.079202057  
     58000   0.34381126    -0.73305021    -0.38923895     0.056452015  
     59000   0.44645501    -0.53682151    -0.090366499    0.048443179  
     60000   0.46850094    -0.76301555    -0.29451461     0.078198202  
     61000   0.50300822    -0.6250979     -0.12208968     0.087649913  
     62000   0.35395871    -0.51119995    -0.15724124     0.079011859  
     63000   0.25699366    -0.52958445    -0.27259079     0.092205475  
     64000   0.18539846    -0.27701183    -0.091613374    0.092527991  
     65000   0.2056067      0.073122508    0.27872921     0.061276646  
     66000   0.10372726    -0.22250501    -0.11877775     0.066535557  
     67000   0.10070427    -0.11586884    -0.015164568    0.063854264  
     68000   0.18914492    -0.16721069     0.021934229    0.070181771  
     69000   0.38717444    -0.31038721     0.076787226    0.067701126  
     70000   0.59422347    -0.46462502     0.12959845     0.076407343  
     71000   0.51408665    -0.33052714     0.18355952     0.064001745  
     72000   0.51861246    -0.69849405    -0.17988159     0.035537471  
     73000   0.55006388    -0.62586823    -0.075804345    0.052531012  
     74000   0.75259355    -0.68779358     0.06479997     0.071020599  
     75000   0.8368709     -0.6751311      0.16173979     0.07943132   
     76000   0.75097555    -0.65334458     0.097630962    0.066481897  
     77000   0.56663205    -0.53027344     0.036358606    0.082455176  
     78000   0.60073974    -0.72266216    -0.12192242     0.080197562  
     79000   0.66654961    -0.79888868    -0.13233906     0.085997782  
     80000   0.86033271    -0.6385606      0.22177211     0.074387611  
     81000   0.60535092    -0.58085738     0.024493548    0.1033585    
     82000   0.74005176    -0.73288475     0.0071670093   0.061968749  
     83000   0.22546628    -0.54246972    -0.31700343     0.073075246  
     84000   0.23297098    -0.7223873     -0.48941633     0.061081439  
     85000   0.32921738    -0.74472336    -0.41550599     0.075640274  
     86000   0.62539925    -0.7341171     -0.10871785     0.092985562  
     87000   0.84336213    -0.7376197      0.10574243     0.085251622  
     88000   0.3346959     -0.41833961    -0.083643707    0.10729027   
     89000   0.094253922   -0.78863297    -0.69437905     0.069621231  
     90000   0.017451144   -0.68781831    -0.67036717     0.10722528   
     91000   0.0071685375  -0.82745769    -0.82028915     0.098405573  
     92000   0.0027613813  -0.72114143    -0.71838005     0.091228114  
     93000   0.0014083544  -0.61360322    -0.61219487     0.097561086  
     94000   0.0019297407  -0.59638538    -0.59445564     0.092365397  
     95000   0.0010603004  -0.71463266    -0.71357236     0.096645219  
     96000   0.0044756029  -0.81796625    -0.81349064     0.090779343  
     97000   0.015452235   -0.66614957    -0.65069733     0.092904188  
     98000   0.026123048   -0.58531104    -0.55918799     0.15114097   
     99000   0.010409586   -0.49053495    -0.48012537     0.082732621  
    100000   0.0043238157  -0.24567281    -0.24134899     0.098322524  
Loop time of 3.63018 on 1 procs for 100000 steps with 32 atoms

Performance: 2380046.537 tau/day, 27546.835 timesteps/s, 881.499 katom-step/s
98.8% CPU use with 1 MPI tasks x 1 OpenMP threads

MPI task timing breakdown:
Section |  min time  |  avg time  |  max time  |%varavg| %total
---------------------------------------------------------------
Pair    | 2.6735     | 2.6735     | 2.6735     |   0.0 | 73.65
Neigh   | 0.0045914  | 0.0045914  | 0.0045914  |   0.0 |  0.13
Comm    | 0.11063    | 0.11063    | 0.11063    |   0.0 |  3.05
Output  | 0.00060696 | 0.00060696 | 0.00060696 |   0.0 |  0.02
Modify  | 0.80729    | 0.80729    | 0.80729    |   0.0 | 22.24
Other   |            | 0.03357    |            |       |  0.92

Nlocal:             32 ave          32 max          32 min
Histogram: 1 0 0 0 0 0 0 0 0 0
Nghost:             42 ave          42 max          42 min
Histogram: 1 0 0 0 0 0 0 0 0 0
Neighs:             89 ave          89 max          89 min
Histogram: 1 0 0 0 0 0 0 0 0 0

Total # of neighbors = 89
Ave neighs/atom = 2.78125
Neighbor list builds = 1569
Dangerous builds = 0
Total wall time: 0:00:03
