LAMMPS (2 Sep 2026)
  using 1 OpenMP thread(s) per MPI task
# 2d rounded polygon bodies

variable    r     index 4
variable    steps index 100000
variable    T     index 0.5
variable    P     index 0.1
variable    seed  index 980411

units       lj
dimension   2

atom_style  body rounded/polygon 1 6
atom_modify map array
read_data   data.squares
Reading data file ...
  orthogonal box = (0 0 -0.5) to (12 12 0.5)
  2 by 2 by 1 MPI processor grid
  reading atoms ...
  2 atoms
  2 bodies
  read_data CPU = 0.001 seconds

replicate   $r $r 1
replicate   4 $r 1
replicate   4 4 1
Replication is creating a 4x4x1 = 16 times larger system...
  orthogonal box = (0 0 -0.5) to (48 48 0.5)
  2 by 2 by 1 MPI processor grid
  32 atoms
  replicate CPU = 0.000 seconds

velocity    all create $T ${seed} dist gaussian mom yes rot yes
velocity    all create 0.5 ${seed} dist gaussian mom yes rot yes
velocity    all create 0.5 980411 dist gaussian mom yes rot yes

change_box  all boundary p f p
Changing box ...

variable cut_inner  equal 0.5
variable k_n        equal 100
variable k_na       equal 2
variable c_n        equal 0.1
variable c_t        equal 0.1
variable mu         equal 0.1
variable delta_ua   equal 0.5

pair_style body/rounded/polygon ${c_n} ${c_t} ${mu} ${delta_ua} ${cut_inner}
pair_style body/rounded/polygon 0.1 ${c_t} ${mu} ${delta_ua} ${cut_inner}
pair_style body/rounded/polygon 0.1 0.1 ${mu} ${delta_ua} ${cut_inner}
pair_style body/rounded/polygon 0.1 0.1 0.1 ${delta_ua} ${cut_inner}
pair_style body/rounded/polygon 0.1 0.1 0.1 0.5 ${cut_inner}
pair_style body/rounded/polygon 0.1 0.1 0.1 0.5 0.5
pair_coeff * * ${k_n} ${k_na}
pair_coeff * * 100 ${k_na}
pair_coeff * * 100 2

comm_modify vel yes

neighbor     0.5 bin
neigh_modify every 1 delay 0 check yes

timestep     0.001

#fix         1 all nve/body
#fix         1 all nvt/body temp $T $T 1.0
fix          1 all npt/body temp $T $T 1.0 x 0.001 $P 1.0 fixedpoint 0 0 0
fix          1 all npt/body temp 0.5 $T 1.0 x 0.001 $P 1.0 fixedpoint 0 0 0
fix          1 all npt/body temp 0.5 0.5 1.0 x 0.001 $P 1.0 fixedpoint 0 0 0
fix          1 all npt/body temp 0.5 0.5 1.0 x 0.001 0.1 1.0 fixedpoint 0 0 0

fix          2 all enforce2d
fix          3 all wall/body/polygon 2000 50 50 yplane 0.0 48.0

#compute      1 all body/local id 1 2 3
#dump         1 all local 100000 dump.polygon.* index c_1[1] c_1[2] c_1[3] c_1[4]

thermo_style custom step ke pe etotal press
thermo       1000

#dump	     2 all image 10000 image.*.jpg type type zoom 2.0 #             adiam 1.5 body type 0 0
#dump_modify  2 pad 6

run          ${steps}
run          100000
Generated 0 of 0 mixed pair_coeff terms from geometric mixing rule
Neighbor list info ...
  update: every = 1 steps, delay = 0 steps, check = yes
  max neighbors/atom: 2000, page size: 100000
  master list distance cutoff = 7.1568542
  ghost atom cutoff = 7.1568542
  binsize = 3.5784271, bins = 14 14 1
  1 neighbor lists, perpetual/occasional/extra = 1 0 0
  (1) pair body/rounded/polygon, perpetual
      attributes: half, newton on
      pair build: half/bin/atomonly/newton
      stencil: half/bin/2d
      bin: standard
Per MPI rank memory allocation (min/avg/max) = 7.379 | 7.379 | 7.379 Mbytes
   Step         KinEng         PotEng         TotEng         Press     
         0   0.484375       0              0.484375       0.0067274306 
      1000   0.51029595    -0.0073843491   0.5029116      0.010439673  
      2000   0.55744774    -0.014081982    0.54336576     0.003364633  
      3000   0.75443509    -0.017074633    0.73736046     0.0078528842 
      4000   0.74830584    -0.02427666     0.72402918     0.0069650593 
      5000   0.56180386    -0.0089637506   0.55284011     0.0080628916 
      6000   0.48080469     0.0054660634   0.48627075     0.0086230497 
      7000   0.66152772     0.003955881    0.6654836      0.013971806  
      8000   0.48591199    -0.024217691    0.4616943      0.0011606606 
      9000   0.45447092    -0.033086974    0.42138394     0.0054975945 
     10000   0.5282501     -0.048944373    0.47930573     0.0099186717 
     11000   0.40035428    -0.041761301    0.35859298     0.01072109   
     12000   0.47917693    -0.04389816     0.43527877     0.0061274501 
     13000   0.48404411    -0.060878562    0.42316555     0.0055231206 
     14000   0.49603403    -0.083020058    0.41301397     0.0049331141 
     15000   0.49899838    -0.096119415    0.40287896     0.0035148501 
     16000   0.46710637    -0.096821941    0.37028443     0.020644818  
     17000   0.39984206    -0.05337391     0.34646815     0.015822255  
     18000   0.49813832    -0.051817628    0.4463207      0.0075367275 
     19000   0.55512295    -0.064541503    0.49058145     0.018576067  
     20000   0.61033659    -0.062357108    0.54797948     0.012265453  
     21000   0.52171924    -0.056229548    0.46548969     0.0048537868 
     22000   0.43307105    -0.067836445    0.3652346      0.028608833  
     23000   0.51628542    -0.061930081    0.45435534     0.022517923  
     24000   0.65458265    -0.083302031    0.57128062     0.042024397  
     25000   0.551734      -0.063282171    0.48845182     0.0091661904 
     26000   0.51217418    -0.077352907    0.43482127    -0.0017624858 
     27000   0.62038911    -0.074059712    0.5463294     -0.00037401859
     28000   0.64532071    -0.055651042    0.58966966     0.027327038  
     29000   0.55893488    -0.079694462    0.47924042     0.037463998  
     30000   0.54169906    -0.094357107    0.44734195     0.032527844  
     31000   0.58448305    -0.10423547     0.48024757     0.025188362  
     32000   0.57863739    -0.10177538     0.47686201     0.0027298013 
     33000   0.43928274    -0.080729564    0.35855317    -0.0083121629 
     34000   0.6256952     -0.1562403      0.4694549     -0.011949713  
     35000   0.50022342    -0.12286101     0.37736241     0.014396282  
     36000   0.70862948    -0.12107939     0.5875501      0.040280466  
     37000   0.83583079    -0.14846988     0.6873609      0.043697442  
     38000   0.59338143    -0.16355247     0.42982896     0.010836181  
     39000   0.57804529    -0.12366577     0.45437951     0.020880521  
     40000   0.6893801     -0.14413757     0.54524253     0.011135764  
     41000   0.757031      -0.11285099     0.64418001     0.022055699  
     42000   0.70963572    -0.073122291    0.63651343     0.032614556  
     43000   0.5033664     -0.10689339     0.39647301     0.041683488  
     44000   0.57594922    -0.095042122    0.4809071      0.027019946  
     45000   0.87731153    -0.11980427     0.75750726     0.057448454  
     46000   0.62884174    -0.11893994     0.5099018      0.062483622  
     47000   0.48809559    -0.12593557     0.36216002     0.05555544   
     48000   0.54798593    -0.13816805     0.40981788     0.025687982  
     49000   0.6240839     -0.12840577     0.49567813     0.011379943  
     50000   0.5259359     -0.17815121     0.34778469    -0.0076698831 
     51000   0.64481144    -0.10449246     0.54031898     0.053778346  
     52000   0.73513502    -0.11526154     0.61987349     0.019740932  
     53000   0.79049418    -0.14200995     0.64848423     0.041775646  
     54000   0.59265791    -0.13396727     0.45869064     0.03757864   
     55000   0.68930391    -0.20456761     0.48473629     0.070692807  
     56000   0.59736977    -0.20191029     0.39545948     0.055304735  
     57000   0.73634056    -0.24543759     0.49090297     0.031601438  
     58000   0.85013101    -0.24768668     0.60244433     0.070637602  
     59000   0.61848404    -0.3032927      0.31519134     0.079092648  
     60000   0.60292956    -0.30776256     0.295167       0.044376937  
     61000   0.61900876    -0.4257742      0.19323457    -0.0005975763 
     62000   0.77529314    -0.43122193     0.34407121     0.0291209    
     63000   0.76677027    -0.45418009     0.31259018    -0.013899698  
     64000   0.59983319    -0.51877811     0.081055075    0.023219641  
     65000   0.43607224    -0.56862217    -0.13254993     0.010611218  
     66000   0.56222158    -0.64295568    -0.0807341      0.078312154  
     67000   0.69579088    -0.67365501     0.022135869    0.048158873  
     68000   0.81164259    -0.7115306      0.10011198     0.14670989   
     69000   0.74337291    -0.72981915     0.01355376    -0.030113461  
     70000   0.6002546     -0.72699632    -0.12674173     0.067267017  
     71000   0.65055196    -0.78139215    -0.1308402     -0.024952314  
     72000   0.95878253    -0.85190396     0.10687856    -0.0065413252 
     73000   0.80058126    -0.83015939    -0.029578128    0.20806476   
     74000   0.680179      -0.90783214    -0.22765314     0.0083004489 
     75000   0.69708427    -0.93369717    -0.2366129     -0.18030205   
     76000   0.76624939    -0.90633791    -0.14008852     0.097418126  
     77000   0.85514528    -0.93634953    -0.081204246    0.046775114  
     78000   0.80644873    -0.95304673    -0.146598      -0.0023991919 
     79000   0.60914486    -0.89741368    -0.28826882     0.074754283  
     80000   0.62945119    -0.85081764    -0.22136645     0.32517515   
     81000   0.85162327    -0.84360525     0.0080180219   0.21016377   
     82000   0.83279229    -0.82645111     0.006341186    0.27228694   
     83000   0.72382709    -0.90023871    -0.17641161     0.11333181   
     84000   0.69221573    -0.94687287    -0.25465714     0.033367484  
     85000   0.76165064    -0.94868765    -0.18703701     0.1149014    
     86000   0.95251027    -0.96965982    -0.017149547   -0.10979495   
     87000   0.81950315    -0.97082253    -0.15131938    -0.06098611   
     88000   0.62898521    -0.88476021    -0.255775       0.28745668   
     89000   0.68239686    -0.92313979    -0.24074293     0.17692068   
     90000   0.83453201    -0.89096063    -0.056428612    0.27851696   
     91000   0.80858513    -0.87267215    -0.064087017    0.287025     
     92000   0.51804667    -0.93067458    -0.4126279     -0.14669444   
     93000   0.57612718    -0.91057576    -0.33444858    -0.034890181  
     94000   0.7264423     -0.89575079    -0.16930849     0.039876609  
     95000   0.79654125    -0.92839578    -0.13185453    -0.0040093524 
     96000   0.72109739    -0.94412878    -0.22303139     0.035593648  
     97000   0.60700929    -0.98755252    -0.38054323     0.0064328936 
     98000   0.63489168    -1.0295075     -0.39461578     0.21381487   
     99000   0.84118946    -1.0808818     -0.23969237    -0.082217641  
    100000   0.8365127     -1.0216443     -0.18513165     0.26254853   
Loop time of 4.09207 on 4 procs for 100000 steps with 32 atoms

Performance: 2111402.901 tau/day, 24437.534 timesteps/s, 782.001 katom-step/s
98.0% CPU use with 4 MPI tasks x 1 OpenMP threads

MPI task timing breakdown:
Section |  min time  |  avg time  |  max time  |%varavg| %total
---------------------------------------------------------------
Pair    | 1.415      | 1.4219     | 1.4266     |   0.4 | 34.75
Neigh   | 0.0027233  | 0.0029331  | 0.0031566  |   0.3 |  0.07
Comm    | 0.61103    | 0.62344    | 0.63597    |   1.2 | 15.24
Output  | 0.0014183  | 0.0014727  | 0.0015344  |   0.1 |  0.04
Modify  | 1.65       | 1.7        | 1.7259     |   2.3 | 41.54
Other   |            | 0.3423     |            |       |  8.37

Nlocal:              8 ave           9 max           7 min
Histogram: 1 0 0 0 0 2 0 0 0 1
Nghost:          21.25 ave          22 max          20 min
Histogram: 1 0 0 0 0 1 0 0 0 2
Neighs:           23.5 ave          31 max          16 min
Histogram: 1 0 0 1 0 0 1 0 0 1

Total # of neighbors = 94
Ave neighs/atom = 2.9375
Neighbor list builds = 2556
Dangerous builds = 0
Total wall time: 0:00:04
