LAMMPS (2 Sep 2026)
  using 1 OpenMP thread(s) per MPI task
# 2d rounded polygon bodies

variable    r     index 4
variable    steps index 100000
variable    T     index 0.5
variable    P     index 0.1
variable    seed  index 980411

units       lj
dimension   2

atom_style  body rounded/polygon 1 6
atom_modify map array
read_data   data.squares
Reading data file ...
  orthogonal box = (0 0 -0.5) to (12 12 0.5)
  1 by 1 by 1 MPI processor grid
  reading atoms ...
  2 atoms
  2 bodies
  read_data CPU = 0.001 seconds

replicate   $r $r 1
replicate   4 $r 1
replicate   4 4 1
Replication is creating a 4x4x1 = 16 times larger system...
  orthogonal box = (0 0 -0.5) to (48 48 0.5)
  1 by 1 by 1 MPI processor grid
  32 atoms
  replicate CPU = 0.000 seconds

velocity    all create $T ${seed} dist gaussian mom yes rot yes
velocity    all create 0.5 ${seed} dist gaussian mom yes rot yes
velocity    all create 0.5 980411 dist gaussian mom yes rot yes

change_box  all boundary p f p
Changing box ...

variable cut_inner  equal 0.5
variable k_n        equal 100
variable k_na       equal 2
variable c_n        equal 0.1
variable c_t        equal 0.1
variable mu         equal 0.1
variable delta_ua   equal 0.5

pair_style body/rounded/polygon ${c_n} ${c_t} ${mu} ${delta_ua} ${cut_inner}
pair_style body/rounded/polygon 0.1 ${c_t} ${mu} ${delta_ua} ${cut_inner}
pair_style body/rounded/polygon 0.1 0.1 ${mu} ${delta_ua} ${cut_inner}
pair_style body/rounded/polygon 0.1 0.1 0.1 ${delta_ua} ${cut_inner}
pair_style body/rounded/polygon 0.1 0.1 0.1 0.5 ${cut_inner}
pair_style body/rounded/polygon 0.1 0.1 0.1 0.5 0.5
pair_coeff * * ${k_n} ${k_na}
pair_coeff * * 100 ${k_na}
pair_coeff * * 100 2

comm_modify vel yes

neighbor     0.5 bin
neigh_modify every 1 delay 0 check yes

timestep     0.001

#fix         1 all nve/body
#fix         1 all nvt/body temp $T $T 1.0
fix          1 all npt/body temp $T $T 1.0 x 0.001 $P 1.0 fixedpoint 0 0 0
fix          1 all npt/body temp 0.5 $T 1.0 x 0.001 $P 1.0 fixedpoint 0 0 0
fix          1 all npt/body temp 0.5 0.5 1.0 x 0.001 $P 1.0 fixedpoint 0 0 0
fix          1 all npt/body temp 0.5 0.5 1.0 x 0.001 0.1 1.0 fixedpoint 0 0 0

fix          2 all enforce2d
fix          3 all wall/body/polygon 2000 50 50 yplane 0.0 48.0

#compute      1 all body/local id 1 2 3
#dump         1 all local 100000 dump.polygon.* index c_1[1] c_1[2] c_1[3] c_1[4]

thermo_style custom step ke pe etotal press
thermo       1000

#dump	     2 all image 10000 image.*.jpg type type zoom 2.0 #             adiam 1.5 body type 0 0
#dump_modify  2 pad 6

run          ${steps}
run          100000
Generated 0 of 0 mixed pair_coeff terms from geometric mixing rule
Neighbor list info ...
  update: every = 1 steps, delay = 0 steps, check = yes
  max neighbors/atom: 2000, page size: 100000
  master list distance cutoff = 7.1568542
  ghost atom cutoff = 7.1568542
  binsize = 3.5784271, bins = 14 14 1
  1 neighbor lists, perpetual/occasional/extra = 1 0 0
  (1) pair body/rounded/polygon, perpetual
      attributes: half, newton on
      pair build: half/bin/atomonly/newton
      stencil: half/bin/2d
      bin: standard
Per MPI rank memory allocation (min/avg/max) = 7.375 | 7.375 | 7.375 Mbytes
   Step         KinEng         PotEng         TotEng         Press     
         0   0.484375       0              0.484375       0.0067274306 
      1000   0.51029595    -0.0073843491   0.5029116      0.010439673  
      2000   0.55744774    -0.014081982    0.54336576     0.003364633  
      3000   0.75443509    -0.017074633    0.73736046     0.0078528842 
      4000   0.74830584    -0.02427666     0.72402918     0.0069650593 
      5000   0.56180386    -0.0089637506   0.55284011     0.0080628916 
      6000   0.48080469     0.0054660633   0.48627075     0.0086230497 
      7000   0.66152772     0.003955881    0.6654836      0.013971806  
      8000   0.48591199    -0.024217691    0.4616943      0.0011606606 
      9000   0.45447092    -0.033086974    0.42138394     0.0054975948 
     10000   0.5282501     -0.048944369    0.47930574     0.009918676  
     11000   0.40035427    -0.041761296    0.35859298     0.010721087  
     12000   0.47917694    -0.043898219    0.43527872     0.0061274421 
     13000   0.48404398    -0.060878091    0.42316589     0.0055225883 
     14000   0.49603427    -0.083019808    0.41301446     0.0049330045 
     15000   0.49895013    -0.096079674    0.40287045     0.0034929399 
     16000   0.46686912    -0.097754069    0.36911505     0.019861702  
     17000   0.40010226    -0.054740809    0.34536145     0.017972386  
     18000   0.5093645     -0.039760271    0.46960423     0.024373611  
     19000   0.50172513    -0.048566416    0.45315871     0.010729049  
     20000   0.67393844    -0.066247403    0.60769104     0.016541271  
     21000   0.51922655    -0.092984745    0.4262418      0.0093573119 
     22000   0.45218014    -0.085754451    0.36642569     0.0078019854 
     23000   0.48613067    -0.088489858    0.39764081     0.00034521184
     24000   0.60438972    -0.095000608    0.50938911     0.017838263  
     25000   0.58148007    -0.074394994    0.50708507     0.010616078  
     26000   0.59082586    -0.070421302    0.52040456     0.042931846  
     27000   0.74336296    -0.057251655    0.68611131     0.0033527433 
     28000   0.7811192     -0.06527916     0.71584004     0.020673521  
     29000   0.48820647    -0.057385102    0.43082137     0.039332361  
     30000   0.43060115    -0.062410926    0.36819023     0.032554137  
     31000   0.70545607    -0.074914506    0.63054156     0.056276482  
     32000   0.66564092    -0.1171913      0.54844963    -0.0089947895 
     33000   0.57198659    -0.093076632    0.47890996     0.0046458606 
     34000   0.48383476    -0.075275421    0.40855933     0.015301967  
     35000   0.59162186    -0.08805823     0.50356363     0.019253527  
     36000   0.73942563    -0.11032507     0.62910057     0.033629595  
     37000   0.49981876    -0.12467058     0.37514819     0.048655693  
     38000   0.48442089    -0.12925729     0.35516359     0.042933345  
     39000   0.63117632    -0.13296081     0.49821552     0.062042724  
     40000   0.57969088    -0.15077801     0.42891286     0.0089036824 
     41000   0.62268744    -0.12868581     0.49400163     0.024177995  
     42000   0.67490626    -0.1595131      0.51539316    -0.0059837704 
     43000   0.53319869    -0.17426578     0.35893291     0.037053523  
     44000   0.45436733    -0.22208439     0.23228294    -0.0050891927 
     45000   0.51407525    -0.23527782     0.27879743     0.0069717245 
     46000   0.62838022    -0.30713652     0.32124371    -0.011588826  
     47000   0.59193729    -0.26156941     0.33036788     0.002528254  
     48000   0.63214235    -0.33726393     0.29487842    -0.01458305   
     49000   0.65191267    -0.35179358     0.30011909     0.04505348   
     50000   0.70201061    -0.35669349     0.34531713     0.016381242  
     51000   0.92663046    -0.33338761     0.59324284     0.0031267812 
     52000   0.67297101    -0.33475509     0.33821592     0.06695471   
     53000   0.50922815    -0.34393931     0.16528884     0.0522065    
     54000   0.63445646    -0.39653325     0.23792322     0.06691171   
     55000   0.75182299    -0.3831841      0.36863889     0.081760628  
     56000   0.64255915    -0.45116979     0.19138936     0.0058196254 
     57000   0.57495093    -0.46681229     0.10813865     0.039042348  
     58000   0.68807654    -0.45791807     0.23015848     0.0614402    
     59000   0.73851865    -0.43401919     0.30449946     0.076201128  
     60000   0.71654109    -0.53949526     0.17704583     0.019942727  
     61000   0.64395893    -0.61417238     0.029786552   -0.016218736  
     62000   0.6351759     -0.65008612    -0.014910226    0.010792249  
     63000   0.77091402    -0.62560177     0.14531226     0.12440919   
     64000   0.86110406    -0.69879311     0.16231094     0.0090850368 
     65000   0.67089827    -0.70391384    -0.033015562    0.084198553  
     66000   0.55825467    -0.76444196    -0.20618729     0.040146399  
     67000   0.6313405     -0.76233425    -0.13099374     0.15906678   
     68000   0.67544341    -0.92429888    -0.24885547    -0.063084027  
     69000   0.77527091    -0.88819595    -0.11292504     0.067172957  
     70000   0.80130125    -0.89874246    -0.097441212    0.099417501  
     71000   0.67872215    -0.86414348    -0.18542133     0.25659713   
     72000   0.55840726    -0.86553998    -0.30713272     0.25034817   
     73000   0.69164959    -0.89646768    -0.20481809     0.16051363   
     74000   0.88112935    -0.90497376    -0.023844405    0.068013891  
     75000   0.74753176    -0.94733482    -0.19980306    -0.066682433  
     76000   0.65187115    -0.96473305    -0.3128619      0.039794203  
     77000   0.69921614    -0.9634902     -0.26427405     0.053063783  
     78000   1.0148707     -0.90190021     0.11297049     0.12735654   
     79000   0.87491585    -0.91784568    -0.042929824    0.088174472  
     80000   0.71156895    -0.85416295    -0.142594       0.2561706    
     81000   0.69443052    -0.90492368    -0.21049316     0.17935293   
     82000   0.73688523    -0.99235521    -0.25546998     0.016202187  
     83000   0.81537886    -1.0435801     -0.22820127    -0.026418156  
     84000   0.81504417    -1.0538192     -0.23877503     0.10495167   
     85000   0.6066744     -1.0994969     -0.49282247    -0.19420037   
     86000   0.55836843    -1.1067099     -0.54834152    -0.32465604   
     87000   0.781214      -1.0987797     -0.31756567    -0.1204085    
     88000   0.80350555    -1.0857493     -0.28224378    -0.038351509  
     89000   0.70440644    -1.0375399     -0.33313343     0.18672405   
     90000   0.65477222    -1.0224485     -0.36767628     0.23570447   
     91000   0.82498597    -1.1131674     -0.28818148    -0.28046256   
     92000   0.95909769    -1.0170717     -0.057974005    0.34738213   
     93000   0.70152422    -1.0695857     -0.36806144     0.16938723   
     94000   0.65968462    -1.1243482     -0.46466356    -0.1174238    
     95000   0.7496542     -1.0948962     -0.34524195     0.20816207   
     96000   0.81597411    -1.1730392     -0.35706511    -0.27986165   
     97000   0.70868976    -1.176283      -0.4675932     -0.3230878    
     98000   0.5536286     -1.0975262     -0.54389765     0.20219494   
     99000   0.67721713    -1.0927148     -0.4154977      0.22063918   
    100000   0.8469999     -1.1232209     -0.27622097     0.097251747  
Loop time of 3.83412 on 1 procs for 100000 steps with 32 atoms

Performance: 2253451.977 tau/day, 26081.620 timesteps/s, 834.612 katom-step/s
98.2% CPU use with 1 MPI tasks x 1 OpenMP threads

MPI task timing breakdown:
Section |  min time  |  avg time  |  max time  |%varavg| %total
---------------------------------------------------------------
Pair    | 2.704      | 2.704      | 2.704      |   0.0 | 70.53
Neigh   | 0.0064254  | 0.0064254  | 0.0064254  |   0.0 |  0.17
Comm    | 0.068117   | 0.068117   | 0.068117   |   0.0 |  1.78
Output  | 0.00063767 | 0.00063767 | 0.00063767 |   0.0 |  0.02
Modify  | 1.0187     | 1.0187     | 1.0187     |   0.0 | 26.57
Other   |            | 0.0362     |            |       |  0.94

Nlocal:             32 ave          32 max          32 min
Histogram: 1 0 0 0 0 0 0 0 0 0
Nghost:             24 ave          24 max          24 min
Histogram: 1 0 0 0 0 0 0 0 0 0
Neighs:            104 ave         104 max         104 min
Histogram: 1 0 0 0 0 0 0 0 0 0

Total # of neighbors = 104
Ave neighs/atom = 3.25
Neighbor list builds = 2480
Dangerous builds = 0
Total wall time: 0:00:03
