LAMMPS (4 Jul 2026 - Development - patch_4Jul2026-308-g7ee3eb9867-modified)
OMP_NUM_THREADS environment is not set. Defaulting to 1 thread.
  using 1 OpenMP thread(s) per MPI task
# pour one types of particles into cylinder and oscillate
# temperature of the bottom plate

variable        name string heat_plate

atom_style      sphere
units           lj

###############################################
# Geometry-related parameters
###############################################

variable        boxx equal 10
variable        boxy equal 10
variable        boxz equal 50

variable        drum_rad equal ${boxx}*0.5
variable        drum_rad equal 10*0.5
variable        drum_height equal 30

variable        xc equal 0.5*${boxx}
variable        xc equal 0.5*10
variable        yc equal 0.5*${boxx}
variable        yc equal 0.5*10
variable        zc equal 0.5*${boxz}
variable        zc equal 0.5*50

###############################################
# Particle-related parameters
###############################################
variable        rlo equal 0.25
variable        rhi equal 0.5
variable        dlo equal 2.0*${rlo}
variable        dlo equal 2.0*0.25
variable        dhi equal 2.0*${rhi}
variable        dhi equal 2.0*0.5

variable        cyl_rad_inner equal ${drum_rad}-1.1*${rhi}
variable        cyl_rad_inner equal 5-1.1*${rhi}
variable        cyl_rad_inner equal 5-1.1*0.5

variable        dens equal 1.0

variable skin equal 0.4*${rhi}
variable skin equal 0.4*0.5

#############
processors * * 1
region          boxreg block 0 ${boxx} 0 ${boxy} 0 ${boxz}
region          boxreg block 0 10 0 ${boxy} 0 ${boxz}
region          boxreg block 0 10 0 10 0 ${boxz}
region          boxreg block 0 10 0 10 0 50
create_box      2 boxreg
Created orthogonal box = (0 0 0) to (10 10 50)
  1 by 1 by 1 MPI processor grid
change_box      all boundary p p f
Changing box ...

pair_style      granular
pair_coeff      * * hertz/material 1e5 0.2 0.3 tangential mindlin NULL 1.0 0.5 damping tsuji heat area 5.0

region          curved_wall cylinder z ${xc} ${yc} ${drum_rad} 0 ${drum_height} side in
region          curved_wall cylinder z 5 ${yc} ${drum_rad} 0 ${drum_height} side in
region          curved_wall cylinder z 5 5 ${drum_rad} 0 ${drum_height} side in
region          curved_wall cylinder z 5 5 5 0 ${drum_height} side in
region          curved_wall cylinder z 5 5 5 0 30 side in
region          bottom_wall plane ${xc} ${yc} 0 0 0 1 side in
region          bottom_wall plane 5 ${yc} 0 0 0 1 side in
region          bottom_wall plane 5 5 0 0 0 1 side in

region          insreg cylinder z ${xc} ${yc} ${cyl_rad_inner} ${drum_height} ${boxz}
region          insreg cylinder z 5 ${yc} ${cyl_rad_inner} ${drum_height} ${boxz}
region          insreg cylinder z 5 5 ${cyl_rad_inner} ${drum_height} ${boxz}
region          insreg cylinder z 5 5 4.45 ${drum_height} ${boxz}
region          insreg cylinder z 5 5 4.45 30 ${boxz}
region          insreg cylinder z 5 5 4.45 30 50

fix             0 all property/atom temperature heatflow
WARNING: Fix property/atom mol, charge, rmass, temperature, or heatflow w/out ghost communication (src/fix_property_atom.cpp:206)
fix             1 all balance 100 1.0 shift xy 5 1.1
fix             2 all nve/sphere
fix             3 all heat/flow constant 1.0
fix             grav all gravity 10 vector 0 0 -1
fix             ins1 all pour 1000 1 1234 region insreg diam range ${dlo} ${dhi} dens ${dens} ${dens}
fix             ins1 all pour 1000 1 1234 region insreg diam range 0.5 ${dhi} dens ${dens} ${dens}
fix             ins1 all pour 1000 1 1234 region insreg diam range 0.5 1 dens ${dens} ${dens}
fix             ins1 all pour 1000 1 1234 region insreg diam range 0.5 1 dens 1 ${dens}
fix             ins1 all pour 1000 1 1234 region insreg diam range 0.5 1 dens 1 1
fix             ins2 all pour 1000 2 1234 region insreg diam range ${dlo} ${dhi} dens ${dens} ${dens}
fix             ins2 all pour 1000 2 1234 region insreg diam range 0.5 ${dhi} dens ${dens} ${dens}
fix             ins2 all pour 1000 2 1234 region insreg diam range 0.5 1 dens ${dens} ${dens}
fix             ins2 all pour 1000 2 1234 region insreg diam range 0.5 1 dens 1 ${dens}
fix             ins2 all pour 1000 2 1234 region insreg diam range 0.5 1 dens 1 1

comm_modify     vel yes

neighbor        ${skin} bin
neighbor        0.2 bin
neigh_modify    delay 0 every 1 check yes

variable        oscillate equal 1.0*sin(step*0.0001)

fix             4 all wall/gran/region granular hertz/material 1e5 0.1 0.3 tangential mindlin NULL 1.0 0.5 damping tsuji region curved_wall
fix             5 all wall/gran/region granular hertz/material 1e5 0.1 0.3 tangential mindlin NULL 1.0 0.5 damping tsuji heat area 5.0 region bottom_wall temperature v_oscillate

thermo_style    custom step atoms ke pxx pyy pzz
thermo_modify   lost warn
thermo          100

timestep        0.001

compute        1 all property/atom temperature heatflow
#dump           1 all custom 1000 ${name}.dump id type radius mass x y z c_1[*]

run             100000
Generated 0 of 1 mixed pair_coeff terms from geometric mixing rule
Particle insertion: 594 every 2000 steps, 1000 by step 2001
Particle insertion: 594 every 2000 steps, 1000 by step 2001
Neighbor list info ...
  update: every = 1 steps, delay = 0 steps, check = yes
  max neighbors/atom: 2000, page size: 100000
  master list distance cutoff = 1.2
  ghost atom cutoff = 1.2
  binsize = 0.6, bins = 17 17 84
  1 neighbor lists, perpetual/occasional/extra = 1 0 0
  (1) pair granular, perpetual
      attributes: half, newton on, size, history
      pair build: half/size/bin/atomonly/newton
      stencil: half/bin/3d
      bin: standard
Per MPI rank memory allocation (min/avg/max) = 5.944 | 5.944 | 5.944 Mbytes
   Step        Atoms        KinEng          Pxx            Pyy            Pzz      
         0           0  -0              0              0              0            
WARNING: Fewer insertions than requested (489 vs 594) on step 1 (src/GRANULAR/fix_pour.cpp:704)
WARNING: Fewer insertions than requested (47 vs 594) on step 1 (src/GRANULAR/fix_pour.cpp:704)
       100         536  -0              0              0              4.6811911    
       200         536  -0              0              0              5.6797483    
       300         536  -0              6.8222297e-06  7.9364907e-07  6.0030142    
       400         536  -0              1.2380304e-05  4.1163985e-06  7.1079885    
       500         536  -0              5.0798523e-05  2.3503762e-05  7.4647331    
       600         536  -0              3.2665448e-05  1.1453035e-05  8.5894728    
       700         536  -0              0.0011586888   1.3423354e-05  9.3069458    
       800         536  -0              8.4905997e-05  2.18434e-05    10.524813    
       900         536  -0              8.4822083e-05  1.8906433e-05  11.419746    
      1000         536  -0              0.00054512741  0.0010459885   12.77762     
      1100         536  -0              0.00012683795  4.4723709e-05  13.910985    
      1200         536  -0              0.00027222894  0.03574143     13.939873    
      1300         536  -0              0.029115941    0.062648541    13.862143    
      1400         536  -0              0.13287418     0.091529354    13.839124    
      1500         536  -0              0.082139737    0.15744394     13.175827    
      1600         536  -0              0.20050079     0.15931829     12.864423    
      1700         536  -0              0.17747265     0.21795825     12.660869    
      1800         536  -0              0.24166587     0.2433198      12.287486    
      1900         536  -0              0.49320762     0.48292943     11.815806    
      2000         536  -0              0.35756519     0.38112072     10.720582    
WARNING: Fewer insertions than requested (430 vs 511) on step 2001 (src/GRANULAR/fix_pour.cpp:704)
WARNING: Fewer insertions than requested (21 vs 594) on step 2001 (src/GRANULAR/fix_pour.cpp:704)
      2100         987  -0              0.57480822     0.7055039      13.198337    
      2200         987  -0              0.65579595     0.51996477     12.580706    
      2300         987  -0              0.58403742     0.5663925      12.493918    
      2400         987  -0              0.69241913     0.61657016     12.619855    
      2500         987  -0              0.63560221     0.76725519     12.90392     
      2600         987  -0              0.79158105     0.9387755      12.115713    
      2700         987  -0              0.86648255     0.75562612     11.432459    
      2800         987  -0              0.63787508     0.52763085     11.894359    
      2900         987  -0              1.0769616      1.0304826      11.814084    
      3000         987  -0              1.0966004      1.1079156      11.930444    
      3100         987  -0              1.2244934      1.3323474      10.997543    
      3200         987  -0              0.74637635     0.67770631     10.73711     
      3300         987  -0              0.86541544     0.97935352     11.894365    
      3400         987  -0              1.2471811      1.2520152      11.539582    
      3500         987  -0              1.1196013      1.0916432      10.726988    
      3600         987  -0              1.2114732      1.3243312      10.754796    
      3700         987  -0              1.1862475      1.1228448      10.733382    
      3800         987  -0              1.4715148      1.4105344      10.295455    
      3900         987  -0              1.4115712      1.4870767      9.8125732    
      4000         987  -0              1.5525348      1.4331873      9.4988077    
WARNING: Fewer insertions than requested (413 vs 594) on step 4001 (src/GRANULAR/fix_pour.cpp:704)
      4100        1481  -0              1.5315773      1.4762201      12.831474    
      4200        1481  -0              1.4574116      1.4020927      12.854989    
      4300        1481  -0              1.5846517      1.7308227      13.162519    
      4400        1481  -0              1.742607       2.0420261      13.783053    
      4500        1481  -0              1.7408689      1.7338836      12.821152    
      4600        1481  -0              2.0764077      1.8532477      13.243302    
      4700        1481  -0              1.7772757      1.6999854      12.65184     
      4800        1481  -0              1.6662007      1.864206       13.237706    
      4900        1481  -0              1.9535748      1.7791548      13.131531    
      5000        1481  -0              2.0558845      2.2078238      13.435913    
      5100        1481  -0              2.4709503      2.4919498      13.584581    
      5200        1481  -0              2.6154646      2.5900598      13.673049    
      5300        1481  -0              2.637154       2.696596       13.270372    
      5400        1481  -0              2.9585743      3.0462993      13.243685    
      5500        1481  -0              2.7058497      2.8205065      12.216661    
      5600        1481  -0              2.5899224      2.5357853      11.378558    
      5700        1481  -0              2.697482       2.7785666      11.482903    
      5800        1481  -0              3.0700031      3.0756472      11.574563    
      5900        1481  -0              2.7383378      2.8860233      10.93283     
      6000        1481  -0              2.8868208      3.0666987      10.727377    
WARNING: Fewer insertions than requested (441 vs 519) on step 6001 (src/GRANULAR/fix_pour.cpp:704)
      6100        1922  -0              3.4142599      3.5033395      14.309442    
      6200        1922  -0              2.7813502      2.9997723      13.175848    
      6300        1922  -0              2.7967747      2.9563368      13.257738    
      6400        1922  -0              4.0105691      4.055402       15.003696    
      6500        1922  -0              3.8469314      3.8432658      14.446543    
      6600        1922  -0              3.5126573      3.5272628      12.909835    
      6700        1922  -0              3.9129193      3.9005019      13.880685    
      6800        1922  -0              3.7227459      3.887181       13.337487    
      6900        1922  -0              3.1883421      3.2940715      12.340393    
      7000        1922  -0              3.5468166      3.5961695      13.283714    
      7100        1922  -0              3.939524       3.991324       13.945303    
      7200        1922  -0              3.9336851      4.0260475      13.350213    
      7300        1922  -0              3.6429398      3.7793521      12.634039    
      7400        1922  -0              4.1899842      4.1545063      12.954813    
      7500        1922  -0              4.1671595      4.2986663      12.868116    
      7600        1922  -0              3.8981346      4.0453834      12.34137     
      7700        1922  -0              3.9743341      4.0613181      12.556294    
      7800        1922  -0              4.3803212      4.6705168      12.616175    
      7900        1922  -0              4.2578286      4.4449084      12.3012      
      8000        1922  -0              4.3670104      4.5437944      12.180353    
      8100        2000  -0              4.5231777      4.6589896      11.982307    
      8200        2000  -0              4.7303497      5.0961521      12.179456    
      8300        2000  -0              5.0067993      4.982433       11.318392    
      8400        2000  -0              4.5368415      4.6914473      10.219552    
      8500        2000  -0              4.9063677      4.9455989      10.56388     
      8600        2000  -0              5.0893272      5.1516229      10.034027    
      8700        2000  -0              4.9767249      4.974698       8.5462288    
      8800        2000  -0              4.8951355      4.8296102      7.4742086    
      8900        2000  -0              4.3974796      4.5229206      6.9681757    
      9000        2000  -0              4.0318276      4.1803633      6.031491     
      9100        2000  -0              4.1730937      4.3984661      6.3375354    
      9200        2000  -0              4.3506564      4.5182911      6.8404018    
      9300        2000  -0              4.1636469      4.3196329      6.5783925    
      9400        2000  -0              4.2030913      4.4282008      6.5059742    
      9500        2000  -0              4.330127       4.4965811      6.9292186    
      9600        2000  -0              4.2261627      4.326229       6.7625712    
      9700        2000  -0              4.2999279      4.3998363      6.3506987    
      9800        2000  -0              4.2710446      4.3795413      6.2131469    
      9900        2000  -0              4.2383743      4.3532549      6.1000094    
     10000        2000  -0              4.1724552      4.2134772      5.8280352    
     10100        2000  -0              4.2932848      4.2824183      5.8023611    
     10200        2000  -0              4.4057         4.4722878      6.2491777    
     10300        2000  -0              4.3705473      4.3985333      5.9691968    
     10400        2000  -0              4.367756       4.4805115      5.7039304    
     10500        2000  -0              4.2621295      4.3074286      5.5679576    
     10600        2000  -0              4.277222       4.3702446      5.4378908    
     10700        2000  -0              4.2663576      4.3847928      5.4395733    
     10800        2000  -0              4.2320738      4.2924743      5.1462225    
     10900        2000  -0              4.1993627      4.259085       5.0122237    
     11000        2000  -0              4.1418365      4.2439195      5.0079411    
     11100        2000  -0              4.1504353      4.2361526      5.0223116    
     11200        2000  -0              4.1563692      4.2359383      5.0160534    
     11300        2000  -0              4.1571141      4.2371742      5.0170749    
     11400        2000  -0              4.1578287      4.2382403      5.0224011    
     11500        2000  -0              4.1591081      4.2376112      5.0455394    
     11600        2000  -0              4.1570802      4.2279885      5.0159597    
     11700        2000  -0              4.1521871      4.2258029      4.9991313    
     11800        2000  -0              4.1562037      4.2300444      5.0223332    
     11900        2000  -0              4.1566689      4.2343663      5.0344188    
     12000        2000  -0              4.1544553      4.2292662      5.0112756    
     12100        2000  -0              4.152584       4.2272484      5.0114402    
     12200        2000  -0              4.1599574      4.2349839      5.0310355    
     12300        2000  -0              4.1611501      4.2324665      5.0223139    
     12400        2000  -0              4.1609522      4.2332678      5.0112334    
     12500        2000  -0              4.1592045      4.2312446      5.0254288    
     12600        2000  -0              4.1546899      4.231394       5.0158149    
     12700        2000  -0              4.1576225      4.2314112      5.0132453    
     12800        2000  -0              4.1594667      4.2331361      5.02344      
     12900        2000  -0              4.1597527      4.2359246      5.0266842    
     13000        2000  -0              4.1576644      4.2325436      5.0190002    
     13100        2000  -0              4.1596176      4.2359153      5.0223307    
     13200        2000  -0              4.159093       4.2342894      5.0204785    
     13300        2000  -0              4.1585807      4.2340263      5.0158155    
     13400        2000  -0              4.1603499      4.2367239      5.0259741    
     13500        2000  -0              4.1595594      4.2340744      5.0196538    
     13600        2000  -0              4.1591234      4.2353281      5.02112      
     13700        2000  -0              4.1607081      4.2347226      5.0219258    
     13800        2000  -0              4.1587496      4.2334091      5.0188863    
     13900        2000  -0              4.1598325      4.2339835      5.0193256    
     14000        2000  -0              4.159836       4.233425       5.0210629    
     14100        2000  -0              4.1595423      4.2340296      5.0194807    
     14200        2000  -0              4.1605958      4.2338869      5.0189579    
     14300        2000  -0              4.1600857      4.2342972      5.0194936    
     14400        2000  -0              4.1601038      4.2344296      5.0213664    
     14500        2000  -0              4.1597644      4.234326       5.0205435    
     14600        2000  -0              4.1592367      4.2336101      5.018755     
     14700        2000  -0              4.1595114      4.234326       5.0197136    
     14800        2000  -0              4.1596023      4.234116       5.0198863    
     14900        2000  -0              4.1595391      4.2340955      5.0202104    
     15000        2000  -0              4.1596032      4.2340514      5.0192355    
     15100        2000  -0              4.159485       4.2341393      5.0202588    
     15200        2000  -0              4.1594188      4.2340083      5.0195209    
     15300        2000  -0              4.1594331      4.2340497      5.0197814    
     15400        2000  -0              4.1595126      4.2340275      5.0197322    
     15500        2000  -0              4.1593382      4.2340511      5.0194682    
     15600        2000  -0              4.1594603      4.2339989      5.0196391    
     15700        2000  -0              4.1593671      4.2340509      5.019716     
     15800        2000  -0              4.1594457      4.2339981      5.019506     
     15900        2000  -0              4.1593396      4.2340194      5.0196469    
     16000        2000  -0              4.1594252      4.2339916      5.0195656    
     16100        2000  -0              4.1593569      4.2340009      5.019599     
     16200        2000  -0              4.1593425      4.234016       5.0195957    
     16300        2000  -0              4.1594151      4.233984       5.0196018    
     16400        2000  -0              4.1593488      4.2340279      5.0196952    
     16500        2000  -0              4.1593576      4.2339535      5.0193652    
     16600        2000  -0              4.159271       4.2340026      5.0196728    
     16700        2000  -0              4.1594051      4.2339745      5.0195469    
     16800        2000  -0              4.1592636      4.2339957      5.0195476    
     16900        2000  -0              4.159408       4.2339683      5.0195815    
     17000        2000  -0              4.1592167      4.2339893      5.0194668    
     17100        2000  -0              4.1593846      4.2339641      5.019549     
     17200        2000  -0              4.1592573      4.2339841      5.019607     
     17300        2000  -0              4.1593195      4.2339456      5.019392     
     17400        2000  -0              4.1592669      4.2339607      5.0195805    
     17500        2000  -0              4.1592951      4.2339715      5.0195478    
     17600        2000  -0              4.1592741      4.2339193      5.0193959    
     17700        2000  -0              4.1592518      4.2339728      5.0195822    
     17800        2000  -0              4.1593055      4.2339291      5.019471     
     17900        2000  -0              4.1591927      4.2339521      5.0194587    
     18000        2000  -0              4.1593271      4.2339253      5.019493     
     18100        2000  -0              4.1591808      4.2339621      5.019496     
     18200        2000  -0              4.1593072      4.2339078      5.0194066    
     18300        2000  -0              4.1591681      4.2339607      5.0195126    
     18400        2000  -0              4.1593054      4.2339149      5.01942      
     18500        2000  -0              4.1591631      4.2339356      5.0194558    
     18600        2000  -0              4.159277       4.233923       5.0194323    
     18700        2000  -0              4.159179       4.23392        5.0194484    
     18800        2000  -0              4.1592365      4.2339188      5.0194205    
     18900        2000  -0              4.1592028      4.2339024      5.0194229    
     19000        2000  -0              4.1591903      4.2339231      5.0194408    
     19100        2000  -0              4.1592247      4.2338859      5.0193908    
     19200        2000  -0              4.1591513      4.233926       5.0194401    
     19300        2000  -0              4.159247       4.2338776      5.0193811    
     19400        2000  -0              4.1591198      4.2339243      5.0194292    
     19500        2000  -0              4.1592518      4.233875       5.0193652    
     19600        2000  -0              4.1591058      4.2339189      5.0194256    
     19700        2000  -0              4.1592455      4.2338763      5.0193517    
     19800        2000  -0              4.1591017      4.2339069      5.0194092    
     19900        2000  -0              4.1592277      4.233881       5.0193554    
     20000        2000  -0              4.1591122      4.2338899      5.019387     
     20100        2000  -0              4.1591964      4.2338829      5.0193611    
     20200        2000  -0              4.1591331      4.2338719      5.0193659    
     20300        2000  -0              4.1591531      4.2338842      5.0193704    
     20400        2000  -0              4.1591631      4.233855       5.0193449    
     20500        2000  -0              4.1591165      4.2338865      5.0193777    
     20600        2000  -0              4.1591919      4.2338422      5.0193268    
     20700        2000  -0              4.1590838      4.2338883      5.0193784    
     20800        2000  -0              4.1592016      4.2338387      5.0193119    
     20900        2000  -0              4.1590598      4.2338861      5.0193724    
     21000        2000  -0              4.1591992      4.2338401      5.0193019    
     21100        2000  -0              4.159053       4.2338768      5.0193615    
     21200        2000  -0              4.1591886      4.2338439      5.0193012    
     21300        2000  -0              4.1590596      4.2338619      5.0193449    
     21400        2000  -0              4.1591646      4.233847       5.0193073    
     21500        2000  -0              4.1590781      4.2338443      5.0193259    
     21600        2000  -0              4.1591278      4.2338481      5.0193191    
     21700        2000  -0              4.1591054      4.2338266      5.0193058    
     21800        2000  -0              4.1590847      4.2338516      5.0193289    
     21900        2000  -0              4.1591341      4.2338132      5.0192887    
     22000        2000  -0              4.1590499      4.2338545      5.0193343    
     22100        2000  -0              4.1591551      4.2338057      5.0192744    
     22200        2000  -0              4.159027       4.2338534      5.0193336    
     22300        2000  -0              4.1591645      4.2338066      5.0192648    
     22400        2000  -0              4.1590166      4.2338465      5.0193269    
     22500        2000  -0              4.1591573      4.2338074      5.0192621    
     22600        2000  -0              4.1590192      4.2338338      5.0193146    
     22700        2000  -0              4.1591407      4.2338112      5.0192672    
     22800        2000  -0              4.1590344      4.2338171      5.019298     
     22900        2000  -0              4.1591105      4.2338131      5.0192787    
     23000        2000  -0              4.1590601      4.2337991      5.0192797    
     23100        2000  -0              4.1590698      4.2338151      5.0192916    
     23200        2000  -0              4.1590906      4.2337836      5.019263     
     23300        2000  -0              4.159032       4.233819       5.0193007    
     23400        2000  -0              4.159117       4.2337737      5.0192489    
     23500        2000  -0              4.1590053      4.2338199      5.0193042    
     23600        2000  -0              4.1591311      4.2337697      5.0192389    
     23700        2000  -0              4.1589903      4.2338158      5.0193021    
     23800        2000  -0              4.1591312      4.2337718      5.0192353    
     23900        2000  -0              4.1589879      4.2338057      5.0192945    
     24000        2000  -0              4.1591205      4.2337758      5.0192395    
     24100        2000  -0              4.1589983      4.2337907      5.0192815    
     24200        2000  -0              4.1590965      4.2337789      5.0192507    
     24300        2000  -0              4.1590204      4.2337731      5.0192655    
     24400        2000  -0              4.15906        4.2337802      5.0192663    
     24500        2000  -0              4.1590501      4.2337563      5.0192499    
     24600        2000  -0              4.1590194      4.2337843      5.0192787    
     24700        2000  -0              4.1590796      4.233744       5.0192365    
     24800        2000  -0              4.1589883      4.233787       5.0192865    
     24900        2000  -0              4.1591001      4.2337377      5.0192264    
     25000        2000  -0              4.158969       4.2337853      5.0192881    
     25100        2000  -0              4.1591062      4.2337376      5.0192209    
     25200        2000  -0              4.1589622      4.2337778      5.0192836    
     25300        2000  -0              4.1591008      4.2337411      5.0192227    
     25400        2000  -0              4.1589672      4.2337647      5.0192736    
     25500        2000  -0              4.1590843      4.233745       5.0192318    
     25600        2000  -0              4.1589865      4.2337478      5.0192594    
     25700        2000  -0              4.1590539      4.2337468      5.0192469    
     25800        2000  -0              4.1590145      4.2337302      5.019244     
     25900        2000  -0              4.1590142      4.2337494      5.0192618    
     26000        2000  -0              4.1590461      4.2337156      5.0192305    
     26100        2000  -0              4.1589793      4.2337531      5.0192727    
     26200        2000  -0              4.1590781      4.2337064      5.0192197    
     26300        2000  -0              4.1589651      4.2337528      5.0192781    
     26400        2000  -0              4.1590933      4.2337029      5.0192129    
     26500        2000  -0              4.158948       4.2337481      5.0192762    
     26600        2000  -0              4.1590856      4.2337063      5.0192114    
     26700        2000  -0              4.1589457      4.2337377      5.0192693    
     26800        2000  -0              4.1590751      4.2337104      5.0192182    
     26900        2000  -0              4.1589595      4.2337223      5.0192571    
     27000        2000  -0              4.1590511      4.2337133      5.0192314    
     27100        2000  -0              4.1589845      4.2337048      5.0192425    
     27200        2000  -0              4.1590152      4.2337147      5.0192483    
     27300        2000  -0              4.1590161      4.2336885      5.0192285    
     27400        2000  -0              4.1589771      4.233719       5.0192612    
     27500        2000  -0              4.1590462      4.2336772      5.0192169    
     27600        2000  -0              4.1589492      4.2337211      5.0192692    
     27700        2000  -0              4.159066       4.2336717      5.0192086    
     27800        2000  -0              4.1589331      4.2337187      5.0192711    
     27900        2000  -0              4.1590718      4.2336724      5.019205     
     28000        2000  -0              4.1589294      4.2337105      5.019267     
     28100        2000  -0              4.1590671      4.2336761      5.0192088    
     28200        2000  -0              4.1589384      4.2336969      5.0192574    
     28300        2000  -0              4.1590497      4.2336798      5.0192198    
     28400        2000  -0              4.1589594      4.2336799      5.019244     
     28500        2000  -0              4.1590192      4.2336814      5.0192362    
     28600        2000  -0              4.1589894      4.2336626      5.0192299    
     28700        2000  -0              4.1589806      4.2336845      5.0192515    
     28800        2000  -0              4.1590217      4.2336488      5.0192176    
     28900        2000  -0              4.1589484      4.2336879      5.0192624    
     29000        2000  -0              4.1590473      4.2336408      5.0192081    
     29100        2000  -0              4.1589276      4.2336877      5.0192673    
     29200        2000  -0              4.1590595      4.2336387      5.0192026    
     29300        2000  -0              4.1589189      4.2336821      5.0192661    
     29400        2000  -0              4.1590598      4.2336417      5.0192034    
     29500        2000  -0              4.1589227      4.2336707      5.0192594    
     29600        2000  -0              4.1590488      4.2336457      5.0192117    
     29700        2000  -0              4.158939       4.2336549      5.0192477    
     29800        2000  -0              4.1590243      4.2336483      5.0192263    
     29900        2000  -0              4.1589659      4.2336374      5.0192339    
     30000        2000  -0              4.1589886      4.2336497      5.0192436    
     30100        2000  -0              4.1589985      4.2336217      5.019221     
     30200        2000  -0              4.1589525      4.233654       5.0192565    
     30300        2000  -0              4.1590284      4.233611       5.0192106    
     30400        2000  -0              4.1589269      4.2336556      5.0192644    
     30500        2000  -0              4.1590473      4.2336062      5.0192035    
     30600        2000  -0              4.1589132      4.2336525      5.0192662    
     30700        2000  -0              4.1590526      4.2336075      5.0192014    
     30800        2000  -0              4.1589117      4.2336436      5.0192622    
     30900        2000  -0              4.1590474      4.2336113      5.0192066    
     31000        2000  -0              4.1589228      4.2336296      5.0192528    
     31100        2000  -0              4.1590293      4.2336147      5.0192188    
     31200        2000  -0              4.1589456      4.2336125      5.0192399    
     31300        2000  -0              4.1589984      4.2336161      5.019236     
     31400        2000  -0              4.1589767      4.2335956      5.0192265    
     31500        2000  -0              4.1589607      4.2336195      5.0192512    
     31600        2000  -0              4.1590092      4.2335824      5.0192153    
     31700        2000  -0              4.1589305      4.2336225      5.019262     
     31800        2000  -0              4.1590341      4.2335749      5.0192068    
     31900        2000  -0              4.1589117      4.2336216      5.0192667    
     32000        2000  -0              4.1590452      4.2335734      5.0192025    
     32100        2000  -0              4.158905       4.2336153      5.0192655    
     32200        2000  -0              4.159045       4.2335765      5.0192047    
     32300        2000  -0              4.1589106      4.2336033      5.0192588    
     32400        2000  -0              4.1590332      4.2335803      5.0192142    
     32500        2000  -0              4.1589286      4.2335873      5.0192474    
     32600        2000  -0              4.1590084      4.2335825      5.0192295    
     32700        2000  -0              4.1589567      4.2335698      5.0192341    
     32800        2000  -0              4.1589728      4.2335839      5.0192467    
     32900        2000  -0              4.1589897      4.2335545      5.0192221    
     33000        2000  -0              4.1589383      4.2335877      5.0192594    
     33100        2000  -0              4.159019       4.2335443      5.0192126    
     33200        2000  -0              4.1589143      4.2335888      5.019267     
     33300        2000  -0              4.1590367      4.2335399      5.0192066    
     33400        2000  -0              4.158902       4.2335851      5.0192686    
     33500        2000  -0              4.1590415      4.2335414      5.0192053    
     33600        2000  -0              4.158904       4.2335752      5.019265     
     33700        2000  -0              4.1590397      4.2335438      5.0192119    
     33800        2000  -0              4.158919       4.2335599      5.019256     
     33900        2000  -0              4.1590211      4.2335467      5.0192246    
     34000        2000  -0              4.1589406      4.2335435      5.0192431    
     34100        2000  -0              4.1589868      4.2335487      5.0192414    
     34200        2000  -0              4.1589702      4.2335272      5.01923      
     34300        2000  -0              4.1589492      4.2335521      5.0192561    
     34400        2000  -0              4.1590025      4.2335145      5.0192193    
     34500        2000  -0              4.1589204      4.2335547      5.0192665    
     34600        2000  -0              4.1590266      4.2335074      5.0192114    
     34700        2000  -0              4.1589028      4.2335534      5.0192709    
     34800        2000  -0              4.159037       4.2335062      5.0192077    
     34900        2000  -0              4.1588972      4.2335466      5.0192696    
     35000        2000  -0              4.1590364      4.2335092      5.0192104    
     35100        2000  -0              4.158904       4.2335344      5.0192628    
     35200        2000  -0              4.1590242      4.2335128      5.0192202    
     35300        2000  -0              4.158923       4.2335183      5.0192514    
     35400        2000  -0              4.1589987      4.2335146      5.0192358    
     35500        2000  -0              4.1589518      4.2335009      5.0192385    
     35600        2000  -0              4.158963       4.2335164      5.0192528    
     35700        2000  -0              4.158985       4.2334859      5.0192269    
     35800        2000  -0              4.1589297      4.23352        5.0192651    
     35900        2000  -0              4.159014       4.2334762      5.0192177    
     36000        2000  -0              4.1589069      4.2335207      5.0192724    
     36100        2000  -0              4.159031       4.2334721      5.0192119    
     36200        2000  -0              4.1588958      4.2335165      5.0192737    
     36300        2000  -0              4.1590352      4.2334739      5.0192113    
     36400        2000  -0              4.1588969      4.2335068      5.0192695    
     36500        2000  -0              4.159029       4.2334774      5.0192178    
     36600        2000  -0              4.1589105      4.2334923      5.01926      
     36700        2000  -0              4.1590098      4.2334803      5.0192309    
     36800        2000  -0              4.1589353      4.2334751      5.0192474    
     36900        2000  -0              4.1589784      4.2334813      5.0192483    
     37000        2000  -0              4.1589674      4.2334586      5.019235     
     37100        2000  -0              4.1589422      4.2334848      5.0192626    
     37200        2000  -0              4.1589995      4.2334463      5.0192247    
     37300        2000  -0              4.1589144      4.2334871      5.0192726    
     37400        2000  -0              4.1590228      4.2334396      5.0192173    
     37500        2000  -0              4.1588979      4.2334853      5.0192767    
     37600        2000  -0              4.1590325      4.2334388      5.019214     
     37700        2000  -0              4.1588932      4.2334782      5.0192752    
     37800        2000  -0              4.1590315      4.2334419      5.0192172    
     37900        2000  -0              4.158901       4.2334657      5.019268     
     38000        2000  -0              4.1590188      4.2334454      5.0192273    
     38100        2000  -0              4.1589208      4.2334495      5.0192567    
     38200        2000  -0              4.158993       4.2334471      5.0192431    
     38300        2000  -0              4.1589502      4.2334322      5.0192439    
     38400        2000  -0              4.1589574      4.233449       5.0192598    
     38500        2000  -0              4.1589833      4.2334175      5.0192327    
     38600        2000  -0              4.1589249      4.2334524      5.0192717    
     38700        2000  -0              4.1590117      4.2334081      5.019224     
     38800        2000  -0              4.158903       4.2334527      5.0192786    
     38900        2000  -0              4.159028       4.2334044      5.0192188    
     39000        2000  -0              4.1588927      4.2334482      5.0192797    
     39100        2000  -0              4.1590317      4.2334063      5.0192186    
     39200        2000  -0              4.1588946      4.2334381      5.0192754    
     39300        2000  -0              4.159025       4.2334098      5.0192254    
     39400        2000  -0              4.1589088      4.2334234      5.019266     
     39500        2000  -0              4.1590055      4.2334125      5.0192386    
     39600        2000  -0              4.1589341      4.2334062      5.0192537    
     39700        2000  -0              4.158974       4.2334134      5.0192558    
     39800        2000  -0              4.1589662      4.2333899      5.019242     
     39900        2000  -0              4.1589379      4.233417       5.0192701    
     40000        2000  -0              4.1589973      4.2333781      5.019233     
     40100        2000  -0              4.1589102      4.2334193      5.0192801    
     40200        2000  -0              4.1590194      4.2333719      5.0192268    
     40300        2000  -0              4.1588937      4.2334174      5.0192844    
     40400        2000  -0              4.159028       4.2333719      5.0192245    
     40500        2000  -0              4.1588892      4.2334085      5.0192917    
     40600        2000  -0              4.1590258      4.233372       5.0192318    
     40700        2000  -0              4.1588971      4.2333957      5.0192858    
     40800        2000  -0              4.1590126      4.2333764      5.0192458    
     40900        2000  -0              4.158916       4.2333795      5.0192716    
     41000        2000  -0              4.1589858      4.2333783      5.0192616    
     41100        2000  -0              4.1589455      4.2333634      5.0192617    
     41200        2000  -0              4.1589495      4.2333803      5.0192772    
     41300        2000  -0              4.1589775      4.2333491      5.0192499    
     41400        2000  -0              4.1589174      4.2333843      5.0192908    
     41500        2000  -0              4.1590048      4.2333402      5.0192416    
     41600        2000  -0              4.1588953      4.2333846      5.0192967    
     41700        2000  -0              4.1590205      4.2333372      5.0192382    
     41800        2000  -0              4.158885       4.2333803      5.0192979    
     41900        2000  -0              4.1590233      4.2333394      5.0192379    
     42000        2000  -0              4.1588869      4.2333707      5.019294     
     42100        2000  -0              4.1590161      4.2333433      5.0192458    
     42200        2000  -0              4.1589009      4.2333563      5.0192843    
     42300        2000  -0              4.1589965      4.2333471      5.0192589    
     42400        2000  -0              4.158927       4.2333409      5.0192725    
     42500        2000  -0              4.1589635      4.2333473      5.019276     
     42600        2000  -0              4.1589573      4.2333239      5.0192607    
     42700        2000  -0              4.1589302      4.2333509      5.0192903    
     42800        2000  -0              4.1589942      4.2333122      5.0192522    
     42900        2000  -0              4.1589072      4.2333527      5.0193001    
     43000        2000  -0              4.1590156      4.2333061      5.0192454    
     43100        2000  -0              4.158887       4.2333512      5.0193036    
     43200        2000  -0              4.1590186      4.2333064      5.0192425    
     43300        2000  -0              4.1588805      4.2333444      5.019302     
     43400        2000  -0              4.1590167      4.2333098      5.0192466    
     43500        2000  -0              4.1588886      4.2333323      5.0192949    
     43600        2000  -0              4.1590032      4.2333136      5.0192576    
     43700        2000  -0              4.1589083      4.2333165      5.0192839    
     43800        2000  -0              4.1589767      4.2333154      5.0192732    
     43900        2000  -0              4.1589372      4.2332999      5.0192717    
     44000        2000  -0              4.1589408      4.2333176      5.0192895    
     44100        2000  -0              4.1589699      4.2332863      5.0192619    
     44200        2000  -0              4.1589087      4.2333211      5.0193011    
     44300        2000  -0              4.1589971      4.2332776      5.0192535    
     44400        2000  -0              4.1588872      4.2333216      5.0193078    
     44500        2000  -0              4.159012       4.2332745      5.0192485    
     44600        2000  -0              4.1588773      4.2333173      5.0193087    
     44700        2000  -0              4.1590148      4.2332768      5.0192488    
     44800        2000  -0              4.1588794      4.2333076      5.0193043    
     44900        2000  -0              4.1590074      4.2332805      5.0192564    
     45000        2000  -0              4.1588934      4.2332933      5.0192949    
     45100        2000  -0              4.1589875      4.2332834      5.0192702    
     45200        2000  -0              4.1589183      4.2332767      5.0192831    
     45300        2000  -0              4.1589559      4.2332846      5.0192878    
     45400        2000  -0              4.1589501      4.2332612      5.0192721    
     45500        2000  -0              4.15892        4.2332882      5.0193011    
     45600        2000  -0              4.1589809      4.2332499      5.0192624    
     45700        2000  -0              4.1588931      4.2332904      5.0193104    
     45800        2000  -0              4.1590026      4.233244       5.0192555    
     45900        2000  -0              4.1588775      4.2332887      5.0193142    
     46000        2000  -0              4.1590109      4.2332439      5.0192527    
     46100        2000  -0              4.1588735      4.2332816      5.0193125    
     46200        2000  -0              4.1590091      4.2332471      5.0192563    
     46300        2000  -0              4.1588815      4.2332694      5.0193055    
     46400        2000  -0              4.1589956      4.2332506      5.0192674    
     46500        2000  -0              4.1589015      4.2332536      5.0192951    
     46600        2000  -0              4.1589696      4.2332524      5.0192835    
     46700        2000  -0              4.1589305      4.2332371      5.019283     
     46800        2000  -0              4.1589344      4.2332546      5.0193003    
     46900        2000  -0              4.1589626      4.2332233      5.019272     
     47000        2000  -0              4.1589027      4.2332581      5.0193124    
     47100        2000  -0              4.1589898      4.2332147      5.0192634    
     47200        2000  -0              4.1588812      4.2332586      5.0193184    
     47300        2000  -0              4.1590052      4.2332114      5.019258     
     47400        2000  -0              4.1588712      4.2332542      5.0193194    
     47500        2000  -0              4.1590082      4.2332136      5.0192582    
     47600        2000  -0              4.1588732      4.2332444      5.0193154    
     47700        2000  -0              4.1590012      4.2332172      5.0192654    
     47800        2000  -0              4.1588875      4.2332302      5.0193066    
     47900        2000  -0              4.1589816      4.23322        5.0192791    
     48000        2000  -0              4.1589122      4.2332137      5.0192944    
     48100        2000  -0              4.1589505      4.2332212      5.0192969    
     48200        2000  -0              4.1589436      4.2331981      5.0192823    
     48300        2000  -0              4.1589152      4.2332247      5.0193116    
     48400        2000  -0              4.1589743      4.2331866      5.0192722    
     48500        2000  -0              4.1588884      4.233227       5.0193213    
     48600        2000  -0              4.1589961      4.2331805      5.0192648    
     48700        2000  -0              4.1588727      4.2332252      5.0193254    
     48800        2000  -0              4.1590047      4.2331802      5.0192619    
     48900        2000  -0              4.1588685      4.2332182      5.0193239    
     49000        2000  -0              4.1590035      4.2331835      5.0192656    
     49100        2000  -0              4.1588764      4.2332061      5.0193169    
     49200        2000  -0              4.1589909      4.233187       5.0192761    
     49300        2000  -0              4.1588959      4.2331905      5.0193058    
     49400        2000  -0              4.1589656      4.2331888      5.019292     
     49500        2000  -0              4.1589246      4.2331741      5.0192933    
     49600        2000  -0              4.1589307      4.2331907      5.0193093    
     49700        2000  -0              4.1589566      4.2331601      5.0192819    
     49800        2000  -0              4.1588988      4.2331942      5.0193216    
     49900        2000  -0              4.1589837      4.2331512      5.019273     
     50000        2000  -0              4.1588772      4.2331948      5.0193287    
     50100        2000  -0              4.1589991      4.2331477      5.0192677    
     50200        2000  -0              4.1588671      4.2331905      5.01933      
     50300        2000  -0              4.1590027      4.2331498      5.0192676    
     50400        2000  -0              4.1588687      4.233181       5.0193258    
     50500        2000  -0              4.1589966      4.2331534      5.0192746    
     50600        2000  -0              4.1588824      4.2331671      5.0193166    
     50700        2000  -0              4.1589782      4.2331563      5.019288     
     50800        2000  -0              4.1589067      4.2331508      5.0193045    
     50900        2000  -0              4.1589479      4.2331574      5.0193054    
     51000        2000  -0              4.1589378      4.2331352      5.0192921    
     51100        2000  -0              4.1589126      4.2331606      5.0193203    
     51200        2000  -0              4.1589683      4.2331235      5.0192821    
     51300        2000  -0              4.1588853      4.233163       5.0193302    
     51400        2000  -0              4.1589903      4.2331172      5.0192748    
     51500        2000  -0              4.1588691      4.2331614      5.0193345    
     51600        2000  -0              4.1589995      4.2331166      5.0192716    
     51700        2000  -0              4.1588645      4.2331547      5.0193332    
     51800        2000  -0              4.1589988      4.2331197      5.0192748    
     51900        2000  -0              4.158872       4.233143       5.0193265    
     52000        2000  -0              4.1589873      4.2331232      5.0192849    
     52100        2000  -0              4.158891       4.2331277      5.0193156    
     52200        2000  -0              4.1589633      4.2331251      5.0193007    
     52300        2000  -0              4.1589191      4.2331113      5.019303     
     52400        2000  -0              4.1589293      4.2331267      5.0193176    
     52500        2000  -0              4.1589506      4.2330973      5.0192919    
     52600        2000  -0              4.158897       4.2331301      5.0193299    
     52700        2000  -0              4.1589779      4.2330882      5.0192831    
     52800        2000  -0              4.1588748      4.2331308      5.0193371    
     52900        2000  -0              4.1589941      4.2330845      5.0192776    
     53000        2000  -0              4.158864       4.2331269      5.0193389    
     53100        2000  -0              4.1589983      4.2330862      5.019277     
     53200        2000  -0              4.1588651      4.2331179      5.019335     
     53300        2000  -0              4.1589931      4.2330897      5.0192834    
     53400        2000  -0              4.1588781      4.2331044      5.019326     
     53500        2000  -0              4.1589758      4.2330926      5.0192964    
     53600        2000  -0              4.1589016      4.2330883      5.019314     
     53700        2000  -0              4.1589468      4.2330936      5.0193135    
     53800        2000  -0              4.1589319      4.2330727      5.0193021    
     53900        2000  -0              4.1589117      4.2330966      5.0193286    
     54000        2000  -0              4.1589624      4.2330609      5.0192921    
     54100        2000  -0              4.158884       4.233099       5.0193384    
     54200        2000  -0              4.1589864      4.2330542      5.0192848    
     54300        2000  -0              4.1588697      4.2330972      5.0193433    
     54400        2000  -0              4.1589985      4.2330525      5.0192815    
     54500        2000  -0              4.1588653      4.2330907      5.0193423    
     54600        2000  -0              4.158998       4.2330557      5.019284     
     54700        2000  -0              4.1588701      4.23308        5.0193357    
     54800        2000  -0              4.1589857      4.2330596      5.0192932    
     54900        2000  -0              4.1588865      4.2330654      5.0193251    
     55000        2000  -0              4.1589624      4.2330616      5.0193084    
     55100        2000  -0              4.1589136      4.2330492      5.0193129    
     55200        2000  -0              4.1589293      4.2330628      5.0193254    
     55300        2000  -0              4.1589447      4.2330351      5.0193018    
     55400        2000  -0              4.1588966      4.2330662      5.019338     
     55500        2000  -0              4.1589724      4.2330258      5.0192928    
     55600        2000  -0              4.1588737      4.2330672      5.0193456    
     55700        2000  -0              4.1589896      4.2330218      5.0192869    
     55800        2000  -0              4.1588622      4.2330639      5.0193477    
     55900        2000  -0              4.158995       4.2330232      5.0192853    
     56000        2000  -0              4.1588625      4.2330555      5.0193438    
     56100        2000  -0              4.158991       4.2330265      5.0192912    
     56200        2000  -0              4.1588739      4.2330425      5.019336     
     56300        2000  -0              4.1589747      4.2330294      5.0193044    
     56400        2000  -0              4.1588968      4.2330267      5.0193235    
     56500        2000  -0              4.1589474      4.2330305      5.0193203    
     56600        2000  -0              4.158926       4.233011       5.0193125    
     56700        2000  -0              4.1589121      4.233033       5.0193366    
     56800        2000  -0              4.1589568      4.232999       5.0193016    
     56900        2000  -0              4.1588842      4.2330356      5.019346     
     57000        2000  -0              4.1589802      4.2329919      5.0192944    
     57100        2000  -0              4.1588659      4.2330347      5.0193519    
     57200        2000  -0              4.1589916      4.2329905      5.0192901    
     57300        2000  -0              4.1588599      4.2330293      5.0193507    
     57400        2000  -0              4.1589928      4.2329931      5.019292     
     57500        2000  -0              4.1588649      4.2330185      5.0193455    
     57600        2000  -0              4.158984       4.2329964      5.0193008    
     57700        2000  -0              4.1588819      4.233004       5.0193348    
     57800        2000  -0              4.1589628      4.2329985      5.0193154    
     57900        2000  -0              4.1589082      4.2329879      5.0193228    
     58000        2000  -0              4.158931       4.2329993      5.0193325    
     58100        2000  -0              4.1589393      4.232973       5.0193118    
     58200        2000  -0              4.1588976      4.2330029      5.0193457    
     58300        2000  -0              4.1589676      4.2329626      5.019303     
     58400        2000  -0              4.1588738      4.233004       5.0193532    
     58500        2000  -0              4.158986       4.2329575      5.0192971    
     58600        2000  -0              4.158861       4.2330009      5.0193558    
     58700        2000  -0              4.1589922      4.2329582      5.0192954    
     58800        2000  -0              4.1588597      4.2329927      5.0193528    
     58900        2000  -0              4.1589894      4.2329614      5.0193003    
     59000        2000  -0              4.1588702      4.2329798      5.0193451    
     59100        2000  -0              4.1589751      4.2329644      5.0193116    
     59200        2000  -0              4.1588916      4.2329639      5.019334     
     59300        2000  -0              4.1589489      4.2329657      5.0193277    
     59400        2000  -0              4.1589208      4.2329477      5.0193223    
     59500        2000  -0              4.1589146      4.2329678      5.0193433    
     59600        2000  -0              4.1589517      4.2329345      5.0193122    
     59700        2000  -0              4.1588853      4.2329704      5.0193539    
     59800        2000  -0              4.1589763      4.2329265      5.0193046    
     59900        2000  -0              4.1588663      4.2329698      5.0193594    
     60000        2000  -0              4.1589891      4.2329239      5.0193003    
     60100        2000  -0              4.1588585      4.2329645      5.0193596    
     60200        2000  -0              4.1589913      4.2329262      5.0193013    
     60300        2000  -0              4.1588624      4.2329542      5.0193544    
     60400        2000  -0              4.1589839      4.2329295      5.019309     
     60500        2000  -0              4.1588779      4.2329397      5.019345     
     60600        2000  -0              4.1589644      4.2329319      5.0193227    
     60700        2000  -0              4.1589031      4.2329234      5.0193333    
     60800        2000  -0              4.158934       4.2329326      5.0193394    
     60900        2000  -0              4.1589339      4.2329081      5.0193221    
     61000        2000  -0              4.1589004      4.2329358      5.019353     
     61100        2000  -0              4.1589628      4.2328971      5.0193131    
     61200        2000  -0              4.1588755      4.2329372      5.0193612    
     61300        2000  -0              4.1589827      4.2328913      5.0193068    
     61400        2000  -0              4.1588613      4.2329347      5.0193644    
     61500        2000  -0              4.1589903      4.2328913      5.0193045    
     61600        2000  -0              4.1588585      4.2329272      5.0193623    
     61700        2000  -0              4.1589888      4.2328942      5.0193084    
     61800        2000  -0              4.1588674      4.232915       5.0193552    
     61900        2000  -0              4.1589765      4.2328973      5.0193187    
     62000        2000  -0              4.1588873      4.2328994      5.0193445    
     62100        2000  -0              4.1589521      4.2328988      5.0193342    
     62200        2000  -0              4.1589156      4.2328831      5.0193327    
     62300        2000  -0              4.1589188      4.2329004      5.01935      
     62400        2000  -0              4.1589465      4.2328694      5.0193224    
     62500        2000  -0              4.1588884      4.2329033      5.0193613    
     62600        2000  -0              4.1589722      4.2328606      5.0193144    
     62700        2000  -0              4.158868       4.2329032      5.0193674    
     62800        2000  -0              4.1589868      4.2328572      5.0193097    
     62900        2000  -0              4.1588586      4.2328986      5.0193684    
     63000        2000  -0              4.1589903      4.232859       5.0193097    
     63100        2000  -0              4.1588608      4.2328891      5.0193641    
     63200        2000  -0              4.1589846      4.2328622      5.0193164    
     63300        2000  -0              4.1588745      4.2328752      5.0193552    
     63400        2000  -0              4.1589673      4.2328648      5.019329     
     63500        2000  -0              4.1588984      4.232859       5.0193437    
     63600        2000  -0              4.1589387      4.2328656      5.0193454    
     63700        2000  -0              4.1589285      4.2328435      5.0193323    
     63800        2000  -0              4.1589057      4.2328683      5.0193595    
     63900        2000  -0              4.158958       4.2328317      5.019323     
     64000        2000  -0              4.1588786      4.2328702      5.0193685    
     64100        2000  -0              4.1589796      4.2328252      5.0193162    
     64200        2000  -0              4.1588628      4.2328684      5.0193725    
     64300        2000  -0              4.1589889      4.2328242      5.0193132    
     64400        2000  -0              4.1588582      4.2328617      5.0193712    
     64500        2000  -0              4.1589888      4.2328269      5.0193159    
     64600        2000  -0              4.1588652      4.2328502      5.0193649    
     64700        2000  -0              4.1589786      4.2328301      5.0193252    
     64800        2000  -0              4.1588834      4.2328352      5.0193546    
     64900        2000  -0              4.1589565      4.2328319      5.0193397    
     65000        2000  -0              4.1589105      4.2328189      5.0193429    
     65100        2000  -0              4.1589247      4.2328328      5.0193558    
     65200        2000  -0              4.1589411      4.2328046      5.0193325    
     65300        2000  -0              4.1588931      4.2328359      5.019368     
     65400        2000  -0              4.158968       4.2327948      5.0193243    
     65500        2000  -0              4.1588711      4.2328364      5.0193745    
     65600        2000  -0              4.1589848      4.2327902      5.019319     
     65700        2000  -0              4.1588598      4.2328326      5.0193763    
     65800        2000  -0              4.1589898      4.2327913      5.0193178    
     65900        2000  -0              4.1588598      4.2328238      5.019373     
     66000        2000  -0              4.158986       4.2327943      5.0193232    
     66100        2000  -0              4.1588714      4.2328105      5.019365     
     66200        2000  -0              4.158971       4.2327971      5.0193347    
     66300        2000  -0              4.1588936      4.2327945      5.0193541    
     66400        2000  -0              4.1589445      4.232798       5.0193505    
     66500        2000  -0              4.1589228      4.2327785      5.0193429    
     66600        2000  -0              4.158911       4.2328001      5.0193652    
     66700        2000  -0              4.1589528      4.2327658      5.0193333    
     66800        2000  -0              4.1588831      4.2328023      5.0193751    
     66900        2000  -0              4.1589762      4.2327581      5.019326     
     67000        2000  -0              4.1588654      4.2328011      5.0193799    
     67100        2000  -0              4.1589877      4.2327559      5.0193221    
     67200        2000  -0              4.1588586      4.2327953      5.0193796    
     67300        2000  -0              4.1589892      4.2327582      5.0193235    
     67400        2000  -0              4.1588633      4.2327846      5.0193743    
     67500        2000  -0              4.1589813      4.2327613      5.0193314    
     67600        2000  -0              4.1588794      4.23277        5.019365     
     67700        2000  -0              4.1589616      4.2327634      5.0193449    
     67800        2000  -0              4.1589048      4.2327537      5.0193536    
     67900        2000  -0              4.1589316      4.232764       5.0193611    
     68000        2000  -0              4.1589351      4.2327387      5.019343     
     68100        2000  -0              4.158899       4.232767       5.019374     
     68200        2000  -0              4.1589633      4.2327279      5.0193343    
     68300        2000  -0              4.1588751      4.232768       5.0193817    
     68400        2000  -0              4.1589823      4.2327222      5.0193283    
     68500        2000  -0              4.1588643      4.2327648      5.0193846    
     68600        2000  -0              4.1589937      4.2327219      5.0193262    
     68700        2000  -0              4.1588646      4.2327567      5.0193823    
     68800        2000  -0              4.1589918      4.2327246      5.0193302    
     68900        2000  -0              4.1588716      4.2327444      5.0193752    
     69000        2000  -0              4.1589761      4.2327278      5.0193405    
     69100        2000  -0              4.158889       4.232729       5.0193647    
     69200        2000  -0              4.1589513      4.2327291      5.0193555    
     69300        2000  -0              4.158917       4.2327129      5.0193535    
     69400        2000  -0              4.1589187      4.2327305      5.0193708    
     69500        2000  -0              4.1589472      4.2326993      5.0193436    
     69600        2000  -0              4.1588891      4.2327331      5.0193819    
     69700        2000  -0              4.1589724      4.2326905      5.0193358    
     69800        2000  -0              4.1588693      4.2327327      5.0193875    
     69900        2000  -0              4.1589866      4.2326869      5.0193312    
     70000        2000  -0              4.1588603      4.2327279      5.0193883    
     70100        2000  -0              4.15899        4.2326886      5.0193311    
     70200        2000  -0              4.1588626      4.2327181      5.019384     
     70300        2000  -0              4.1589844      4.2326917      5.0193376    
     70400        2000  -0              4.1588763      4.2327042      5.0193754    
     70500        2000  -0              4.1589676      4.2326941      5.01935      
     70600        2000  -0              4.1588998      4.2326882      5.0193644    
     70700        2000  -0              4.1589399      4.2326946      5.019366     
     70800        2000  -0              4.1589293      4.2326727      5.0193536    
     70900        2000  -0              4.158907       4.2326971      5.0193797    
     71000        2000  -0              4.1589584      4.2326608      5.0193445    
     71100        2000  -0              4.1588811      4.2326987      5.0193888    
     71200        2000  -0              4.1589798      4.232654       5.0193378    
     71300        2000  -0              4.1588654      4.2326967      5.0193926    
     71400        2000  -0              4.1589893      4.2326527      5.0193346    
     71500        2000  -0              4.1588608      4.23269        5.0193912    
     71600        2000  -0              4.1589895      4.2326552      5.019337     
     71700        2000  -0              4.1588675      4.2326786      5.0193852    
     71800        2000  -0              4.15898        4.2326581      5.0193458    
     71900        2000  -0              4.1588851      4.2326636      5.0193754    
     72000        2000  -0              4.1589589      4.2326598      5.0193599    
     72100        2000  -0              4.1589113      4.2326475      5.0193643    
     72200        2000  -0              4.1589283      4.2326604      5.0193757    
     72300        2000  -0              4.1589415      4.2326331      5.0193541    
     72400        2000  -0              4.158897       4.2326634      5.0193877    
     72500        2000  -0              4.1589684      4.2326231      5.0193459    
     72600        2000  -0              4.1588749      4.2326638      5.0193949    
     72700        2000  -0              4.1589854      4.2326182      5.0193404    
     72800        2000  -0              4.1588634      4.2326601      5.0193966    
     72900        2000  -0              4.1589909      4.2326188      5.0193389    
     73000        2000  -0              4.158863       4.2326515      5.0193934    
     73100        2000  -0              4.1589879      4.2326217      5.0193437    
     73200        2000  -0              4.1588739      4.2326386      5.0193858    
     73300        2000  -0              4.1589742      4.2326244      5.0193546    
     73400        2000  -0              4.158895       4.232623       5.0193753    
     73500        2000  -0              4.1589493      4.2326253      5.01937      
     73600        2000  -0              4.1589233      4.2326071      5.0193643    
     73700        2000  -0              4.1589167      4.232627       5.0193847    
     73800        2000  -0              4.158953       4.2325942      5.0193549    
     73900        2000  -0              4.1588887      4.2326293      5.019395     
     74000        2000  -0              4.1589767      4.2325862      5.0193476    
     74100        2000  -0              4.1588704      4.2326283      5.0194001    
     74200        2000  -0              4.1589892      4.2325833      5.0193434    
     74300        2000  -0              4.158863       4.2326229      5.0193999    
     74400        2000  -0              4.1589915      4.2325853      5.0193441    
     74500        2000  -0              4.1588667      4.2326126      5.0193951    
     74600        2000  -0              4.1589848      4.2325882      5.0193512    
     74700        2000  -0              4.1588814      4.2325985      5.0193863    
     74800        2000  -0              4.1589669      4.2325904      5.019364     
     74900        2000  -0              4.1589055      4.2325826      5.0193753    
     75000        2000  -0              4.1589385      4.232591       5.01938      
     75100        2000  -0              4.1589349      4.2325676      5.0193649    
     75200        2000  -0              4.1589061      4.2325936      5.0193931    
     75300        2000  -0              4.1589631      4.2325564      5.0193562    
     75400        2000  -0              4.1588816      4.2325949      5.0194016    
     75500        2000  -0              4.1589831      4.2325501      5.01935      
     75600        2000  -0              4.1588673      4.2325924      5.0194046    
     75700        2000  -0              4.1589912      4.2325494      5.0193472    
     75800        2000  -0              4.1588639      4.2325852      5.0194027    
     75900        2000  -0              4.1589907      4.2325519      5.0193502    
     76000        2000  -0              4.1588716      4.2325734      5.0193963    
     76100        2000  -0              4.1589802      4.2325548      5.0193594    
     76200        2000  -0              4.1588899      4.2325585      5.0193865    
     76300        2000  -0              4.1589584      4.2325563      5.0193737    
     76400        2000  -0              4.1589163      4.2325426      5.0193756    
     76500        2000  -0              4.1589274      4.2325572      5.0193893    
     76600        2000  -0              4.1589461      4.2325287      5.0193658    
     76700        2000  -0              4.158897       4.23256        5.0194009    
     76800        2000  -0              4.1589719      4.2325193      5.0193579    
     76900        2000  -0              4.1588761      4.2325601      5.0194075    
     77000        2000  -0              4.1589876      4.2325149      5.0193529    
     77100        2000  -0              4.1588656      4.232556       5.0194087    
     77200        2000  -0              4.1589923      4.2325158      5.0193519    
     77300        2000  -0              4.1588661      4.2325471      5.0194051    
     77400        2000  -0              4.1589886      4.2325187      5.0193571    
     77500        2000  -0              4.1588776      4.2325341      5.0193974    
     77600        2000  -0              4.1589741      4.2325213      5.0193683    
     77700        2000  -0              4.158899       4.2325185      5.019387     
     77800        2000  -0              4.1589488      4.2325222      5.0193837    
     77900        2000  -0              4.1589273      4.232503       5.0193763    
     78000        2000  -0              4.1589164      4.232524       5.0193981    
     78100        2000  -0              4.1589564      4.2324906      5.0193671    
     78200        2000  -0              4.1588893      4.2325261      5.019408     
     78300        2000  -0              4.1589792      4.2324829      5.0193602    
     78400        2000  -0              4.158872       4.2325247      5.0194127    
     78500        2000  -0              4.1589906      4.2324804      5.0193563    
     78600        2000  -0              4.1588653      4.232519       5.0194121    
     78700        2000  -0              4.1589924      4.2324824      5.0193574    
     78800        2000  -0              4.1588697      4.2325086      5.0194071    
     78900        2000  -0              4.1589853      4.2324854      5.0193648    
     79000        2000  -0              4.1588848      4.2324945      5.0193982    
     79100        2000  -0              4.1589671      4.2324875      5.0193776    
     79200        2000  -0              4.158909       4.2324787      5.0193874    
     79300        2000  -0              4.1589387      4.232488       5.0193934    
     79400        2000  -0              4.1589382      4.232464       5.0193772    
     79500        2000  -0              4.1589069      4.2324906      5.0194062    
     79600        2000  -0              4.1589658      4.2324531      5.0193688    
     79700        2000  -0              4.1588831      4.2324916      5.0194144    
     79800        2000  -0              4.158985       4.2324472      5.0193628    
     79900        2000  -0              4.1588695      4.2324889      5.0194171    
     80000        2000  -0              4.1589926      4.2324466      5.0193603    
     80100        2000  -0              4.1588665      4.2324815      5.019415     
     80200        2000  -0              4.1589917      4.2324491      5.0193635    
     80300        2000  -0              4.1588746      4.2324697      5.0194086    
     80400        2000  -0              4.158981       4.2324519      5.0193729    
     80500        2000  -0              4.1588931      4.2324548      5.0193988    
     80600        2000  -0              4.1589593      4.2324534      5.019387     
     80700        2000  -0              4.1589196      4.2324391      5.019388     
     80800        2000  -0              4.1589288      4.2324542      5.0194023    
     80900        2000  -0              4.1589491      4.2324255      5.0193783    
     81000        2000  -0              4.1588991      4.2324568      5.0194136    
     81100        2000  -0              4.1589746      4.2324162      5.0193706    
     81200        2000  -0              4.1588789      4.2324567      5.0194199    
     81300        2000  -0              4.1589899      4.2324119      5.0193657    
     81400        2000  -0              4.158869       4.2324524      5.019421     
     81500        2000  -0              4.1589945      4.2324128      5.0193649    
     81600        2000  -0              4.1588698      4.2324434      5.0194173    
     81700        2000  -0              4.1589909      4.2324155      5.0193701    
     81800        2000  -0              4.1588816      4.2324304      5.0194096    
     81900        2000  -0              4.1589767      4.2324181      5.0193812    
     82000        2000  -0              4.1589032      4.2324149      5.0193993    
     82100        2000  -0              4.1589518      4.2324189      5.0193964    
     82200        2000  -0              4.1589313      4.2323996      5.0193887    
     82300        2000  -0              4.1589201      4.2324206      5.0194106    
     82400        2000  -0              4.1589602      4.2323873      5.0193797    
     82500        2000  -0              4.1588935      4.2324224      5.0194203    
     82600        2000  -0              4.1589827      4.2323797      5.0193728    
     82700        2000  -0              4.1588766      4.232421       5.0194248    
     82800        2000  -0              4.1589941      4.2323771      5.019369     
     82900        2000  -0              4.1588703      4.2324152      5.0194242    
     83000        2000  -0              4.1589961      4.232379       5.0193701    
     83100        2000  -0              4.1588747      4.2324048      5.0194192    
     83200        2000  -0              4.1589893      4.2323818      5.0193773    
     83300        2000  -0              4.1588898      4.2323908      5.0194104    
     83400        2000  -0              4.1589717      4.2323839      5.0193899    
     83500        2000  -0              4.158914       4.2323751      5.0193998    
     83600        2000  -0              4.1589441      4.2323843      5.0194055    
     83700        2000  -0              4.158943       4.2323605      5.0193896    
     83800        2000  -0              4.1589129      4.2323866      5.0194181    
     83900        2000  -0              4.1589705      4.2323497      5.0193813    
     84000        2000  -0              4.1588894      4.2323876      5.0194261    
     84100        2000  -0              4.1589897      4.2323436      5.0193753    
     84200        2000  -0              4.1588759      4.2323848      5.0194289    
     84300        2000  -0              4.1589976      4.2323428      5.0193727    
     84400        2000  -0              4.1588731      4.2323775      5.0194268    
     84500        2000  -0              4.1589972      4.2323451      5.0193757    
     84600        2000  -0              4.158881       4.2323658      5.0194205    
     84700        2000  -0              4.1589872      4.2323478      5.0193847    
     84800        2000  -0              4.1588992      4.2323511      5.0194109    
     84900        2000  -0              4.1589663      4.2323493      5.0193985    
     85000        2000  -0              4.1589254      4.2323354      5.0194002    
     85100        2000  -0              4.1589366      4.2323499      5.0194136    
     85200        2000  -0              4.1589546      4.2323218      5.0193906    
     85300        2000  -0              4.1589071      4.2323523      5.0194248    
     85400        2000  -0              4.1589801      4.2323125      5.0193829    
     85500        2000  -0              4.1588868      4.2323522      5.0194312    
     85600        2000  -0              4.1589958      4.2323079      5.0193779    
     85700        2000  -0              4.1588767      4.2323481      5.0194323    
     85800        2000  -0              4.1590015      4.2323087      5.0193767    
     85900        2000  -0              4.158878       4.2323395      5.0194288    
     86000        2000  -0              4.1589984      4.2323112      5.0193816    
     86100        2000  -0              4.1588898      4.2323267      5.0194214    
     86200        2000  -0              4.1589864      4.2323135      5.0193924    
     86300        2000  -0              4.1589124      4.2323109      5.0194115    
     86400        2000  -0              4.1589639      4.2323139      5.0194073    
     86500        2000  -0              4.1589406      4.2322954      5.0194011    
     86600        2000  -0              4.1589325      4.2323153      5.0194214    
     86700        2000  -0              4.1589681      4.2322832      5.0193919    
     86800        2000  -0              4.1589044      4.2323175      5.019431     
     86900        2000  -0              4.1589896      4.2322756      5.0193848    
     87000        2000  -0              4.1588863      4.2323163      5.0194356    
     87100        2000  -0              4.1590014      4.2322727      5.0193808    
     87200        2000  -0              4.1588794      4.2323108      5.0194353    
     87300        2000  -0              4.1590039      4.2322742      5.0193814    
     87400        2000  -0              4.1588832      4.2323007      5.0194306    
     87500        2000  -0              4.158998       4.2322769      5.0193881    
     87600        2000  -0              4.1588975      4.232287       5.0194222    
     87700        2000  -0              4.1589815      4.232279       5.0194002    
     87800        2000  -0              4.1589209      4.2322714      5.0194118    
     87900        2000  -0              4.1589551      4.2322793      5.0194155    
     88000        2000  -0              4.1589494      4.2322567      5.0194017    
     88100        2000  -0              4.1589242      4.2322814      5.0194283    
     88200        2000  -0              4.1589769      4.2322455      5.0193934    
     88300        2000  -0              4.1589         4.2322863      5.0194385    
     88400        2000  -0              4.1589966      4.2322387      5.0193872    
     88500        2000  -0              4.1588861      4.2322796      5.0194402    
     88600        2000  -0              4.1590053      4.2322373      5.0193846    
     88700        2000  -0              4.1588823      4.2322725      5.0194383    
     88800        2000  -0              4.1590056      4.2322393      5.0193872    
     88900        2000  -0              4.1588892      4.2322611      5.0194327    
     89000        2000  -0              4.1589967      4.2322417      5.0193955    
     89100        2000  -0              4.1589064      4.2322465      5.0194236    
     89200        2000  -0              4.1589773      4.2322432      5.019409     
     89300        2000  -0              4.1589316      4.2322308      5.0194132    
     89400        2000  -0              4.1589488      4.2322433      5.0194242    
     89500        2000  -0              4.1589604      4.2322168      5.0194038    
     89600        2000  -0              4.158919       4.2322456      5.0194358    
     89700        2000  -0              4.1589861      4.2322068      5.0193961    
     89800        2000  -0              4.1588979      4.2322455      5.0194427    
     89900        2000  -0              4.1590027      4.2322016      5.019391     
     90000        2000  -0              4.1588868      4.2322416      5.0194445    
     90100        2000  -0              4.1590086      4.2322015      5.0193895    
     90200        2000  -0              4.1588861      4.2322332      5.0194417    
     90300        2000  -0              4.1590066      4.2322038      5.0193937    
     90400        2000  -0              4.158896       4.2322208      5.0194349    
     90500        2000  -0              4.1589948      4.2322061      5.0194037    
     90600        2000  -0              4.1589158      4.2322057      5.0194252    
     90700        2000  -0              4.1589726      4.2322069      5.019418     
     90800        2000  -0              4.1589425      4.2321903      5.019415     
     90900        2000  -0              4.1589425      4.2322077      5.0194324    
     91000        2000  -0              4.158971       4.2321773      5.019406     
     91100        2000  -0              4.158915       4.2322095      5.0194428    
     91200        2000  -0              4.1589945      4.2321686      5.019399     
     91300        2000  -0              4.1588967      4.2322085      5.0194482    
     91400        2000  -0              4.1590079      4.2321648      5.0193949    
     91500        2000  -0              4.1588885      4.2322034      5.0194487    
     91600        2000  -0              4.1590115      4.2321658      5.0193948    
     91700        2000  -0              4.1588908      4.2321938      5.0194447    
     91800        2000  -0              4.159007       4.2321682      5.0194007    
     91900        2000  -0              4.1589036      4.2321804      5.0194369    
     92000        2000  -0              4.1589926      4.2321702      5.0194126    
     92100        2000  -0              4.1589258      4.232165       5.0194273    
     92200        2000  -0              4.158968       4.2321703      5.0194281    
     92300        2000  -0              4.1589539      4.2321499      5.0194184    
     92400        2000  -0              4.1589376      4.2321717      5.019442     
     92500        2000  -0              4.1589818      4.2321378      5.0194106    
     92600        2000  -0              4.1589128      4.2321728      5.0194516    
     92700        2000  -0              4.159003       4.2321304      5.0194047    
     92800        2000  -0              4.1588974      4.2321706      5.0194557    
     92900        2000  -0              4.1590133      4.2321281      5.0194017    
     93000        2000  -0              4.1588921      4.2321643      5.0194551    
     93100        2000  -0              4.1590148      4.2321295      5.0194034    
     93200        2000  -0              4.1588974      4.2321536      5.0194504    
     93300        2000  -0              4.1590079      4.2321319      5.019411     
     93400        2000  -0              4.1589128      4.2321394      5.019442     
     93500        2000  -0              4.1589906      4.2321337      5.0194238    
     93600        2000  -0              4.158937       4.2321241      5.0194322    
     93700        2000  -0              4.1589639      4.2321336      5.0194389    
     93800        2000  -0              4.1589653      4.2321095      5.0194226    
     93900        2000  -0              4.1589339      4.2321355      5.0194511    
     94000        2000  -0              4.1589917      4.2320988      5.0194149    
     94100        2000  -0              4.1589114      4.232136       5.0194589    
     94200        2000  -0              4.15901        4.2320928      5.0194095    
     94300        2000  -0              4.1588986      4.2321327      5.0194616    
     94400        2000  -0              4.1590179      4.232092       5.0194072    
     94500        2000  -0              4.1588966      4.2321253      5.0194604    
     94600        2000  -0              4.1590174      4.2320938      5.0194104    
     94700        2000  -0              4.1589045      4.2321136      5.0194538    
     94800        2000  -0              4.159008       4.2320965      5.0194194    
     94900        2000  -0              4.1589225      4.2320994      5.0194449    
     95000        2000  -0              4.1589881      4.2320976      5.0194326    
     95100        2000  -0              4.158948       4.2320839      5.0194347    
     95200        2000  -0              4.1589598      4.2320978      5.0194475    
     95300        2000  -0              4.1589763      4.2320705      5.0194254    
     95400        2000  -0              4.1589311      4.2320999      5.0194586    
     95500        2000  -0              4.1590011      4.2320611      5.0194183    
     95600        2000  -0              4.1589112      4.2320995      5.019465     
     95700        2000  -0              4.1590165      4.2320562      5.0194136    
     95800        2000  -0              4.1589011      4.2320953      5.0194664    
     95900        2000  -0              4.1590217      4.2320564      5.0194124    
     96000        2000  -0              4.1589013      4.2320866      5.0194634    
     96100        2000  -0              4.1590193      4.2320586      5.019417     
     96200        2000  -0              4.1589119      4.2320741      5.0194566    
     96300        2000  -0              4.1590072      4.2320607      5.0194272    
     96400        2000  -0              4.1589319      4.2320592      5.0194471    
     96500        2000  -0              4.1589851      4.2320614      5.0194415    
     96600        2000  -0              4.1589586      4.232044       5.0194371    
     96700        2000  -0              4.1589555      4.2320622      5.0194555    
     96800        2000  -0              4.1589865      4.2320315      5.0194286    
     96900        2000  -0              4.1589289      4.2320637      5.0194655    
     97000        2000  -0              4.1590092      4.2320232      5.0194219    
     97100        2000  -0              4.1589114      4.2320624      5.0194707    
     97200        2000  -0              4.1590219      4.2320195      5.0194179    
     97300        2000  -0              4.1589039      4.2320571      5.019471     
     97400        2000  -0              4.1590252      4.2320207      5.019418     
     97500        2000  -0              4.1589067      4.2320476      5.019467     
     97600        2000  -0              4.1590207      4.232023       5.019424     
     97700        2000  -0              4.1589197      4.2320344      5.0194594    
     97800        2000  -0              4.1590062      4.232025       5.0194353    
     97900        2000  -0              4.1589417      4.2320193      5.0194496    
     98000        2000  -0              4.1589821      4.2320253      5.0194501    
     98100        2000  -0              4.1589692      4.2320045      5.0194398    
     98200        2000  -0              4.1589522      4.2320267      5.0194632    
     98300        2000  -0              4.1589964      4.231993       5.0194317    
     98400        2000  -0              4.1589277      4.2320276      5.019472     
     98500        2000  -0              4.1590169      4.2319859      5.0194256    
     98600        2000  -0              4.1589126      4.2320253      5.0194758    
     98700        2000  -0              4.1590268      4.2319836      5.0194223    
     98800        2000  -0              4.1589076      4.2320191      5.0194751    
     98900        2000  -0              4.1590284      4.2319851      5.0194237    
     99000        2000  -0              4.1589129      4.2320085      5.0194702    
     99100        2000  -0              4.1590218      4.2319876      5.0194311    
     99200        2000  -0              4.1589282      4.2319947      5.0194618    
     99300        2000  -0              4.1590051      4.2319892      5.0194433    
     99400        2000  -0              4.1589518      4.2319796      5.0194519    
     99500        2000  -0              4.1589791      4.2319892      5.0194581    
     99600        2000  -0              4.1589797      4.2319654      5.0194425    
     99700        2000  -0              4.1589497      4.231991       5.0194703    
     99800        2000  -0              4.1590057      4.231955       5.0194348    
     99900        2000  -0              4.1589274      4.2319912      5.0194779    
    100000        2000  -0              4.1590239      4.2319489      5.0194293    
Loop time of 58.561 on 1 procs for 100000 steps with 2000 atoms

Performance: 147538.500 tau/day, 1707.622 timesteps/s, 3.415 Matom-step/s
99.5% CPU use with 1 MPI tasks x 1 OpenMP threads

MPI task timing breakdown:
Section |  min time  |  avg time  |  max time  |%varavg| %total
---------------------------------------------------------------
Pair    | 40.831     | 40.831     | 40.831     |   0.0 | 69.72
Neigh   | 2.0253     | 2.0253     | 2.0253     |   0.0 |  3.46
Comm    | 0.59712    | 0.59712    | 0.59712    |   0.0 |  1.02
Output  | 0.018865   | 0.018865   | 0.018865   |   0.0 |  0.03
Modify  | 14.758     | 14.758     | 14.758     |   0.0 | 25.20
Other   |            | 0.3306     |            |       |  0.56

Nlocal:           2000 ave        2000 max        2000 min
Histogram: 1 0 0 0 0 0 0 0 0 0
Nghost:            493 ave         493 max         493 min
Histogram: 1 0 0 0 0 0 0 0 0 0
Neighs:           9583 ave        9583 max        9583 min
Histogram: 1 0 0 0 0 0 0 0 0 0

Total # of neighbors = 9583
Ave neighs/atom = 4.7915
Neighbor list builds = 4901
Dangerous builds = 0

Total wall time: 0:00:58
