LAMMPS (4 Jul 2026 - Development - patch_4Jul2026-308-g7ee3eb9867-modified)
OMP_NUM_THREADS environment is not set. Defaulting to 1 thread.
  using 1 OpenMP thread(s) per MPI task
# pour one types of particles into cylinder and oscillate
# temperature of the bottom plate

variable        name string heat_plate

atom_style      sphere
units           lj

###############################################
# Geometry-related parameters
###############################################

variable        boxx equal 10
variable        boxy equal 10
variable        boxz equal 50

variable        drum_rad equal ${boxx}*0.5
variable        drum_rad equal 10*0.5
variable        drum_height equal 30

variable        xc equal 0.5*${boxx}
variable        xc equal 0.5*10
variable        yc equal 0.5*${boxx}
variable        yc equal 0.5*10
variable        zc equal 0.5*${boxz}
variable        zc equal 0.5*50

###############################################
# Particle-related parameters
###############################################
variable        rlo equal 0.25
variable        rhi equal 0.5
variable        dlo equal 2.0*${rlo}
variable        dlo equal 2.0*0.25
variable        dhi equal 2.0*${rhi}
variable        dhi equal 2.0*0.5

variable        cyl_rad_inner equal ${drum_rad}-1.1*${rhi}
variable        cyl_rad_inner equal 5-1.1*${rhi}
variable        cyl_rad_inner equal 5-1.1*0.5

variable        dens equal 1.0

variable skin equal 0.4*${rhi}
variable skin equal 0.4*0.5

#############
processors * * 1
region          boxreg block 0 ${boxx} 0 ${boxy} 0 ${boxz}
region          boxreg block 0 10 0 ${boxy} 0 ${boxz}
region          boxreg block 0 10 0 10 0 ${boxz}
region          boxreg block 0 10 0 10 0 50
create_box      2 boxreg
Created orthogonal box = (0 0 0) to (10 10 50)
  2 by 2 by 1 MPI processor grid
change_box      all boundary p p f
Changing box ...

pair_style      granular
pair_coeff      * * hertz/material 1e5 0.2 0.3 tangential mindlin NULL 1.0 0.5 damping tsuji heat area 5.0

region          curved_wall cylinder z ${xc} ${yc} ${drum_rad} 0 ${drum_height} side in
region          curved_wall cylinder z 5 ${yc} ${drum_rad} 0 ${drum_height} side in
region          curved_wall cylinder z 5 5 ${drum_rad} 0 ${drum_height} side in
region          curved_wall cylinder z 5 5 5 0 ${drum_height} side in
region          curved_wall cylinder z 5 5 5 0 30 side in
region          bottom_wall plane ${xc} ${yc} 0 0 0 1 side in
region          bottom_wall plane 5 ${yc} 0 0 0 1 side in
region          bottom_wall plane 5 5 0 0 0 1 side in

region          insreg cylinder z ${xc} ${yc} ${cyl_rad_inner} ${drum_height} ${boxz}
region          insreg cylinder z 5 ${yc} ${cyl_rad_inner} ${drum_height} ${boxz}
region          insreg cylinder z 5 5 ${cyl_rad_inner} ${drum_height} ${boxz}
region          insreg cylinder z 5 5 4.45 ${drum_height} ${boxz}
region          insreg cylinder z 5 5 4.45 30 ${boxz}
region          insreg cylinder z 5 5 4.45 30 50

fix             0 all property/atom temperature heatflow
WARNING: Fix property/atom mol, charge, rmass, temperature, or heatflow w/out ghost communication (src/fix_property_atom.cpp:206)
fix             1 all balance 100 1.0 shift xy 5 1.1
fix             2 all nve/sphere
fix             3 all heat/flow constant 1.0
fix             grav all gravity 10 vector 0 0 -1
fix             ins1 all pour 1000 1 1234 region insreg diam range ${dlo} ${dhi} dens ${dens} ${dens}
fix             ins1 all pour 1000 1 1234 region insreg diam range 0.5 ${dhi} dens ${dens} ${dens}
fix             ins1 all pour 1000 1 1234 region insreg diam range 0.5 1 dens ${dens} ${dens}
fix             ins1 all pour 1000 1 1234 region insreg diam range 0.5 1 dens 1 ${dens}
fix             ins1 all pour 1000 1 1234 region insreg diam range 0.5 1 dens 1 1
fix             ins2 all pour 1000 2 1234 region insreg diam range ${dlo} ${dhi} dens ${dens} ${dens}
fix             ins2 all pour 1000 2 1234 region insreg diam range 0.5 ${dhi} dens ${dens} ${dens}
fix             ins2 all pour 1000 2 1234 region insreg diam range 0.5 1 dens ${dens} ${dens}
fix             ins2 all pour 1000 2 1234 region insreg diam range 0.5 1 dens 1 ${dens}
fix             ins2 all pour 1000 2 1234 region insreg diam range 0.5 1 dens 1 1

comm_modify     vel yes

neighbor        ${skin} bin
neighbor        0.2 bin
neigh_modify    delay 0 every 1 check yes

variable        oscillate equal 1.0*sin(step*0.0001)

fix             4 all wall/gran/region granular hertz/material 1e5 0.1 0.3 tangential mindlin NULL 1.0 0.5 damping tsuji region curved_wall
fix             5 all wall/gran/region granular hertz/material 1e5 0.1 0.3 tangential mindlin NULL 1.0 0.5 damping tsuji heat area 5.0 region bottom_wall temperature v_oscillate

thermo_style    custom step atoms ke pxx pyy pzz
thermo_modify   lost warn
thermo          100

timestep        0.001

compute        1 all property/atom temperature heatflow
#dump           1 all custom 1000 ${name}.dump id type radius mass x y z c_1[*]

run             100000
Generated 0 of 1 mixed pair_coeff terms from geometric mixing rule
Particle insertion: 594 every 2000 steps, 1000 by step 2001
Particle insertion: 594 every 2000 steps, 1000 by step 2001
Neighbor list info ...
  update: every = 1 steps, delay = 0 steps, check = yes
  max neighbors/atom: 2000, page size: 100000
  master list distance cutoff = 1.2
  ghost atom cutoff = 1.2
  binsize = 0.6, bins = 17 17 84
  1 neighbor lists, perpetual/occasional/extra = 1 0 0
  (1) pair granular, perpetual
      attributes: half, newton on, size, history
      pair build: half/size/bin/atomonly/newton
      stencil: half/bin/3d
      bin: standard
Per MPI rank memory allocation (min/avg/max) = 5.847 | 5.847 | 5.847 Mbytes
   Step        Atoms        KinEng          Pxx            Pyy            Pzz      
         0           0  -0              0              0              0            
WARNING: Fewer insertions than requested (489 vs 594) on step 1 (src/GRANULAR/fix_pour.cpp:704)
WARNING: Fewer insertions than requested (47 vs 594) on step 1 (src/GRANULAR/fix_pour.cpp:704)
       100         536  -0              0              0              4.6811911    
       200         536  -0              0              0              5.6797483    
       300         536  -0              6.8222297e-06  7.9364907e-07  6.0030142    
       400         536  -0              1.2380304e-05  4.1163985e-06  7.1079885    
       500         536  -0              5.0798523e-05  2.3503762e-05  7.4647331    
       600         536  -0              3.2665448e-05  1.1453035e-05  8.5894728    
       700         536  -0              0.0011586888   1.3423354e-05  9.3069458    
       800         536  -0              8.4905997e-05  2.18434e-05    10.524813    
       900         536  -0              8.4822083e-05  1.8906433e-05  11.419746    
      1000         536  -0              0.00054512741  0.0010459885   12.77762     
      1100         536  -0              0.00012683795  4.4723709e-05  13.910985    
      1200         536  -0              0.00027222894  0.03574143     13.939873    
      1300         536  -0              0.029115941    0.062648541    13.862143    
      1400         536  -0              0.13287418     0.091529354    13.839124    
      1500         536  -0              0.082139737    0.15744394     13.175827    
      1600         536  -0              0.20050079     0.15931829     12.864423    
      1700         536  -0              0.17747263     0.21795822     12.660869    
      1800         536  -0              0.24166606     0.2433207      12.287484    
      1900         536  -0              0.49229508     0.48313401     11.814602    
      2000         536  -0              0.36138845     0.3593239      10.701227    
WARNING: Fewer insertions than requested (430 vs 511) on step 2001 (src/GRANULAR/fix_pour.cpp:704)
WARNING: Fewer insertions than requested (21 vs 594) on step 2001 (src/GRANULAR/fix_pour.cpp:704)
      2100         987  -0              0.60523826     0.66942786     13.15987     
      2200         987  -0              0.61842189     0.53452844     12.52356     
      2300         987  -0              0.57946192     0.51237047     12.576943    
      2400         987  -0              0.80266706     0.66058806     12.849776    
      2500         987  -0              0.65302005     0.72279473     12.960424    
      2600         987  -0              0.8022881      0.77502338     12.3587      
      2700         987  -0              0.69037405     0.72173202     11.203632    
      2800         987  -0              0.62408242     0.68174999     11.968052    
      2900         987  -0              0.91697366     0.96423121     11.719052    
      3000         987  -0              1.0275584      1.0990144      11.708721    
      3100         987  -0              1.2440585      1.3257118      10.85287     
      3200         987  -0              0.74500204     0.74764553     10.58104     
      3300         987  -0              0.99042261     0.94201261     11.728463    
      3400         987  -0              1.1809084      1.1580091      11.33932     
      3500         987  -0              1.138088       1.1336618      10.616489    
      3600         987  -0              1.0508262      1.1455433      10.439846    
      3700         987  -0              1.2355486      1.2024325      10.691404    
      3800         987  -0              1.4470401      1.5001939      10.451838    
      3900         987  -0              1.2832958      1.259266       9.378016     
      4000         987  -0              1.7758864      1.7960531      10.083466    
WARNING: Fewer insertions than requested (413 vs 594) on step 4001 (src/GRANULAR/fix_pour.cpp:704)
      4100        1481  -0              1.4319398      1.4545193      13.220805    
      4200        1481  -0              1.4058038      1.4391555      12.95013     
      4300        1481  -0              1.493632       1.583596       13.202695    
      4400        1481  -0              1.8285888      1.9959698      14.112287    
      4500        1481  -0              1.8730639      1.8674196      12.784209    
      4600        1481  -0              1.8483094      1.9879598      12.952661    
      4700        1481  -0              1.8115832      1.7809359      12.670222    
      4800        1481  -0              1.8663862      1.848975       13.184648    
      4900        1481  -0              1.9520085      2.0549305      13.234366    
      5000        1481  -0              2.1473309      2.0389312      13.344065    
      5100        1481  -0              2.1383324      2.2550895      13.819779    
      5200        1481  -0              2.7787134      2.9478125      13.900938    
      5300        1481  -0              2.8019816      2.7956538      13.005283    
      5400        1481  -0              3.0513862      3.0449947      13.050317    
      5500        1481  -0              2.8720486      2.7839111      12.163       
      5600        1481  -0              2.6002438      2.7021736      11.46591     
      5700        1481  -0              2.4724897      2.6025186      11.365178    
      5800        1481  -0              2.9615246      2.9079721      11.675849    
      5900        1481  -0              2.6808864      2.772159       10.643368    
      6000        1481  -0              2.9111902      2.9665355      11.056291    
WARNING: Fewer insertions than requested (441 vs 519) on step 6001 (src/GRANULAR/fix_pour.cpp:704)
      6100        1922  -0              3.3170077      3.4595702      14.307915    
      6200        1922  -0              2.7983357      2.8964183      12.983179    
      6300        1922  -0              2.8812785      2.9557885      13.475695    
      6400        1922  -0              3.8292108      4.1374836      15.14502     
      6500        1922  -0              3.529043       3.868821       14.155786    
      6600        1922  -0              3.2646402      3.3938493      12.722801    
      6700        1922  -0              3.8097124      3.9696252      14.106619    
      6800        1922  -0              3.7086319      4.0281551      13.404889    
      6900        1922  -0              3.3155655      3.5518666      12.460491    
      7000        1922  -0              3.4668285      3.563306       13.416295    
      7100        1922  -0              4.0257567      4.1552616      13.825852    
      7200        1922  -0              3.9975566      4.2495351      13.472548    
      7300        1922  -0              3.5352104      3.7280491      12.328049    
      7400        1922  -0              3.929409       4.0769466      12.964346    
      7500        1922  -0              3.915754       4.1377518      12.752993    
      7600        1922  -0              3.9904866      4.1460295      12.247301    
      7700        1922  -0              3.8249133      3.9806866      12.242324    
      7800        1922  -0              4.2906645      4.5900769      12.532009    
      7900        1922  -0              4.1306399      4.346922       12.336795    
      8000        1922  -0              4.2000503      4.3169297      12.200255    
      8100        2000  -0              4.3722382      4.4575171      12.188917    
      8200        2000  -0              4.6038036      4.9099202      12.171892    
      8300        2000  -0              4.740021       5.0685708      11.406021    
      8400        2000  -0              4.5040591      4.6254533      10.589054    
      8500        2000  -0              4.8081703      5.0356263      10.351136    
      8600        2000  -0              4.9599912      5.2643556      9.9841636    
      8700        2000  -0              4.9239134      5.1932295      8.8721088    
      8800        2000  -0              4.8829976      5.0423532      7.8044739    
      8900        2000  -0              4.2987735      4.5222201      6.8606137    
      9000        2000  -0              3.888573       4.1299166      5.9284618    
      9100        2000  -0              3.9707999      4.1491234      6.0765943    
      9200        2000  -0              4.178964       4.4834416      6.6887778    
      9300        2000  -0              4.0810451      4.2541817      6.5956527    
      9400        2000  -0              4.211463       4.3841075      6.356435     
      9500        2000  -0              4.1925466      4.4163505      6.7388063    
      9600        2000  -0              4.2319163      4.3899175      6.8507977    
      9700        2000  -0              4.2907846      4.507497       6.3796681    
      9800        2000  -0              4.3655394      4.4546295      6.3534838    
      9900        2000  -0              4.1520257      4.3192778      5.9437895    
     10000        2000  -0              4.0596866      4.2299293      5.6981317    
     10100        2000  -0              4.2666732      4.406766       5.98295      
     10200        2000  -0              4.334495       4.5080097      6.1556315    
     10300        2000  -0              4.3250375      4.4621697      5.9375359    
     10400        2000  -0              4.2969851      4.4451919      5.5659153    
     10500        2000  -0              4.1696144      4.3598164      5.4762093    
     10600        2000  -0              4.2369276      4.4074917      5.5474525    
     10700        2000  -0              4.2620264      4.4354995      5.4313107    
     10800        2000  -0              4.1998558      4.3522052      5.174953     
     10900        2000  -0              4.1510238      4.3298603      5.0614039    
     11000        2000  -0              4.1127343      4.2938384      4.9824429    
     11100        2000  -0              4.1296197      4.3050931      5.0320622    
     11200        2000  -0              4.1363162      4.3087851      5.0651659    
     11300        2000  -0              4.125471       4.2915109      4.9966064    
     11400        2000  -0              4.1204037      4.2892202      5.0140637    
     11500        2000  -0              4.1362944      4.3005297      5.055487     
     11600        2000  -0              4.1252889      4.2956119      5.0151786    
     11700        2000  -0              4.1250468      4.2933826      5.0087038    
     11800        2000  -0              4.1343062      4.3038193      5.0388339    
     11900        2000  -0              4.1324826      4.2995025      5.0205165    
     12000        2000  -0              4.1314924      4.2997201      5.0188853    
     12100        2000  -0              4.1294683      4.3011084      5.0263727    
     12200        2000  -0              4.132384       4.301434       5.0281037    
     12300        2000  -0              4.1294455      4.2994187      5.015501     
     12400        2000  -0              4.1302042      4.300133       5.024373     
     12500        2000  -0              4.1318572      4.3008975      5.0279652    
     12600        2000  -0              4.1314061      4.2990976      5.0183131    
     12700        2000  -0              4.1316575      4.3003611      5.024031     
     12800        2000  -0              4.1326055      4.301375       5.0239648    
     12900        2000  -0              4.1310701      4.3004771      5.0207292    
     13000        2000  -0              4.1314245      4.29961        5.0210531    
     13100        2000  -0              4.1315415      4.3005477      5.0220937    
     13200        2000  -0              4.1322283      4.3010979      5.0237605    
     13300        2000  -0              4.1322251      4.3009616      5.0221083    
     13400        2000  -0              4.1310005      4.3008614      5.0205902    
     13500        2000  -0              4.132502       4.3011561      5.0239526    
     13600        2000  -0              4.131986       4.3013707      5.0235375    
     13700        2000  -0              4.1313003      4.3003656      5.0219201    
     13800        2000  -0              4.1319946      4.3005966      5.0227986    
     13900        2000  -0              4.1317187      4.3008772      5.0233185    
     14000        2000  -0              4.1318223      4.3002396      5.0225484    
     14100        2000  -0              4.1316412      4.2998507      5.0218153    
     14200        2000  -0              4.1317982      4.3005741      5.0224787    
     14300        2000  -0              4.1319106      4.3004928      5.0227614    
     14400        2000  -0              4.1318026      4.3003873      5.0220094    
     14500        2000  -0              4.1318381      4.3003515      5.0220363    
     14600        2000  -0              4.1319172      4.3004458      5.022432     
     14700        2000  -0              4.131907       4.3003257      5.0220549    
     14800        2000  -0              4.1318422      4.3002878      5.0217754    
     14900        2000  -0              4.1319482      4.3003469      5.0222162    
     15000        2000  -0              4.13193        4.3003008      5.0219352    
     15100        2000  -0              4.1318981      4.3002249      5.0217001    
     15200        2000  -0              4.1319642      4.3002511      5.0218918    
     15300        2000  -0              4.1319747      4.3002491      5.0218326    
     15400        2000  -0              4.1319506      4.3001745      5.0215971    
     15500        2000  -0              4.1319785      4.300174       5.0216544    
     15600        2000  -0              4.1320063      4.3001748      5.0216943    
     15700        2000  -0              4.1319815      4.3001235      5.0215201    
     15800        2000  -0              4.1319904      4.3000944      5.0214871    
     15900        2000  -0              4.1320133      4.3000878      5.0215439    
     16000        2000  -0              4.1320011      4.3000444      5.0214284    
     16100        2000  -0              4.1320075      4.3000063      5.0213559    
     16200        2000  -0              4.132053       4.299987       5.0213884    
     16300        2000  -0              4.1320902      4.2999607      5.0213159    
     16400        2000  -0              4.132096       4.2999212      5.0212494    
     16500        2000  -0              4.1321325      4.2998894      5.0212534    
     16600        2000  -0              4.1321553      4.299856       5.0212036    
     16700        2000  -0              4.1321748      4.2998216      5.0211364    
     16800        2000  -0              4.1322125      4.2997929      5.0211194    
     16900        2000  -0              4.1322471      4.2997587      5.0210787    
     17000        2000  -0              4.132273       4.2997174      5.0210168    
     17100        2000  -0              4.1322993      4.2996816      5.0209883    
     17200        2000  -0              4.1323244      4.2996445      5.0209593    
     17300        2000  -0              4.1323397      4.2996019      5.0209107    
     17400        2000  -0              4.1323574      4.2995644      5.0208738    
     17500        2000  -0              4.1323816      4.2995363      5.0208445    
     17600        2000  -0              4.1324053      4.2994876      5.0207986    
     17700        2000  -0              4.132427       4.2994479      5.0207576    
     17800        2000  -0              4.1324513      4.2994023      5.020723     
     17900        2000  -0              4.1324733      4.2993512      5.0206878    
     18000        2000  -0              4.1324961      4.2992998      5.0206513    
     18100        2000  -0              4.1325181      4.2992494      5.0206171    
     18200        2000  -0              4.1325384      4.2992006      5.0205859    
     18300        2000  -0              4.1325582      4.2991551      5.0205536    
     18400        2000  -0              4.1325776      4.2991138      5.0205207    
     18500        2000  -0              4.1325977      4.2990751      5.0204889    
     18600        2000  -0              4.1326178      4.2990387      5.0204564    
     18700        2000  -0              4.132639       4.2990051      5.0204237    
     18800        2000  -0              4.1326604      4.2989725      5.020392     
     18900        2000  -0              4.1326805      4.2989413      5.0203625    
     19000        2000  -0              4.1326993      4.2989109      5.0203331    
     19100        2000  -0              4.1327173      4.2988821      5.0203032    
     19200        2000  -0              4.1327382      4.2988567      5.0202722    
     19300        2000  -0              4.1327585      4.2988315      5.0202411    
     19400        2000  -0              4.132777       4.2988055      5.0202106    
     19500        2000  -0              4.1327927      4.2987788      5.0201818    
     19600        2000  -0              4.1328055      4.2987522      5.0201541    
     19700        2000  -0              4.1328163      4.2987263      5.0201271    
     19800        2000  -0              4.1328267      4.2987015      5.0201013    
     19900        2000  -0              4.1328381      4.298679       5.0200749    
     20000        2000  -0              4.13285        4.2986567      5.0200482    
     20100        2000  -0              4.1328702      4.298643       5.0200257    
     20200        2000  -0              4.1328947      4.2986319      5.020004     
     20300        2000  -0              4.1329217      4.2986229      5.019982     
     20400        2000  -0              4.1329476      4.2986143      5.0199606    
     20500        2000  -0              4.1329702      4.298605       5.0199412    
     20600        2000  -0              4.132989       4.298595       5.019923     
     20700        2000  -0              4.1330037      4.2985841      5.019906     
     20800        2000  -0              4.1330159      4.2985735      5.0198898    
     20900        2000  -0              4.1330258      4.2985625      5.0198746    
     21000        2000  -0              4.1330352      4.2985532      5.0198597    
     21100        2000  -0              4.1330442      4.2985435      5.0198443    
     21200        2000  -0              4.1330515      4.298534       5.0198306    
     21300        2000  -0              4.133057       4.2985248      5.019818     
     21400        2000  -0              4.133062       4.2985177      5.0198052    
     21500        2000  -0              4.1330659      4.2985111      5.0197929    
     21600        2000  -0              4.1330681      4.2985031      5.0197816    
     21700        2000  -0              4.1330667      4.298496       5.0197713    
     21800        2000  -0              4.1330641      4.2984879      5.0197613    
     21900        2000  -0              4.1330588      4.2984785      5.0197508    
     22000        2000  -0              4.1330533      4.2984697      5.0197414    
     22100        2000  -0              4.1330478      4.2984619      5.0197325    
     22200        2000  -0              4.1330427      4.298455       5.0197222    
     22300        2000  -0              4.1330378      4.298448       5.019713     
     22400        2000  -0              4.1330333      4.2984418      5.0197043    
     22500        2000  -0              4.1330307      4.2984365      5.0196944    
     22600        2000  -0              4.1330279      4.2984312      5.0196841    
     22700        2000  -0              4.1330245      4.2984253      5.0196753    
     22800        2000  -0              4.1330198      4.2984184      5.0196667    
     22900        2000  -0              4.1330135      4.2984106      5.0196577    
     23000        2000  -0              4.1330067      4.2984029      5.0196498    
     23100        2000  -0              4.1329995      4.2983949      5.0196422    
     23200        2000  -0              4.1329929      4.2983877      5.0196341    
     23300        2000  -0              4.1329873      4.2983815      5.0196255    
     23400        2000  -0              4.1329824      4.298375       5.0196176    
     23500        2000  -0              4.132979       4.2983699      5.0196097    
     23600        2000  -0              4.1329767      4.2983651      5.0196006    
     23700        2000  -0              4.132974       4.2983599      5.0195922    
     23800        2000  -0              4.1329709      4.2983544      5.0195849    
     23900        2000  -0              4.1329668      4.2983483      5.0195778    
     24000        2000  -0              4.132963       4.2983429      5.0195706    
     24100        2000  -0              4.1329613      4.2983386      5.0195645    
     24200        2000  -0              4.1329537      4.2983376      5.0195575    
     24300        2000  -0              4.1329488      4.2983287      5.0195535    
     24400        2000  -0              4.1329433      4.2983229      5.0195467    
     24500        2000  -0              4.1329385      4.298317       5.0195391    
     24600        2000  -0              4.1329382      4.298313       5.0195331    
     24700        2000  -0              4.1329255      4.2983049      5.0195244    
     24800        2000  -0              4.1329159      4.2982935      5.0195025    
     24900        2000  -0              4.1329047      4.2982872      5.0194763    
     25000        2000  -0              4.1328898      4.2982781      5.0194445    
     25100        2000  -0              4.1328658      4.2982578      5.0194077    
     25200        2000  -0              4.13285        4.298241       5.0193648    
     25300        2000  -0              4.1328347      4.2982227      5.0193102    
     25400        2000  -0              4.13282        4.2982019      5.0192414    
     25500        2000  -0              4.1327959      4.2981932      5.0191606    
     25600        2000  -0              4.1327685      4.2981841      5.0190739    
     25700        2000  -0              4.1327352      4.2981783      5.0189608    
     25800        2000  -0              4.1326945      4.2981735      5.0188194    
     25900        2000  -0              4.1326442      4.2981725      5.018647     
     26000        2000  -0              4.1327838      4.2981158      5.0184872    
     26100        2000  -0              4.1329499      4.2980312      5.0183766    
     26200        2000  -0              4.133033       4.2979648      5.0183757    
     26300        2000  -0              4.13308        4.297914       5.0183709    
     26400        2000  -0              4.1331199      4.2978665      5.0183517    
     26500        2000  -0              4.133163       4.2978256      5.0183451    
     26600        2000  -0              4.1332047      4.2977905      5.0183378    
     26700        2000  -0              4.1332402      4.2977583      5.0183153    
     26800        2000  -0              4.1332776      4.297728       5.0182962    
     26900        2000  -0              4.1333236      4.2976992      5.0182783    
     27000        2000  -0              4.13338        4.2976616      5.0182473    
     27100        2000  -0              4.1334351      4.297618       5.0182237    
     27200        2000  -0              4.1334803      4.2975792      5.0181954    
     27300        2000  -0              4.1335251      4.2975432      5.0181788    
     27400        2000  -0              4.1335648      4.2975087      5.0181578    
     27500        2000  -0              4.1335994      4.2974765      5.0181364    
     27600        2000  -0              4.1336331      4.2974487      5.018124     
     27700        2000  -0              4.1336629      4.2974236      5.0181107    
     27800        2000  -0              4.1336892      4.2973998      5.0180947    
     27900        2000  -0              4.1337135      4.2973797      5.0180839    
     28000        2000  -0              4.1337359      4.2973616      5.0180753    
     28100        2000  -0              4.133755       4.2973447      5.0180641    
     28200        2000  -0              4.1337711      4.2973283      5.0180554    
     28300        2000  -0              4.1337856      4.2973138      5.0180499    
     28400        2000  -0              4.1337974      4.2972999      5.0180423    
     28500        2000  -0              4.1338074      4.2972869      5.0180358    
     28600        2000  -0              4.1338161      4.2972752      5.0180319    
     28700        2000  -0              4.1338238      4.2972646      5.0180274    
     28800        2000  -0              4.1338301      4.2972548      5.0180225    
     28900        2000  -0              4.1338365      4.2972462      5.0180192    
     29000        2000  -0              4.1338405      4.2972424      5.0180145    
     29100        2000  -0              4.133846       4.2972305      5.0180133    
     29200        2000  -0              4.1338513      4.2972236      5.0180093    
     29300        2000  -0              4.1338554      4.2972173      5.018009     
     29400        2000  -0              4.1338577      4.2972106      5.0180064    
     29500        2000  -0              4.1338593      4.2972038      5.0180039    
     29600        2000  -0              4.1338605      4.2971977      5.0180039    
     29700        2000  -0              4.1338609      4.2971916      5.0180031    
     29800        2000  -0              4.1338623      4.2971965      5.0179893    
     29900        2000  -0              4.1338607      4.2971801      5.018001     
     30000        2000  -0              4.13386        4.2971747      5.0180013    
     30100        2000  -0              4.1338593      4.2971696      5.0180007    
     30200        2000  -0              4.133859       4.297165       5.0180006    
     30300        2000  -0              4.1338585      4.2971606      5.0180009    
     30400        2000  -0              4.1338578      4.2971563      5.0180007    
     30500        2000  -0              4.1338568      4.2971519      5.0180008    
     30600        2000  -0              4.1338556      4.2971476      5.0180014    
     30700        2000  -0              4.1338539      4.2971432      5.0180019    
     30800        2000  -0              4.1338518      4.2971387      5.0180024    
     30900        2000  -0              4.1338495      4.2971344      5.0180033    
     31000        2000  -0              4.133847       4.2971302      5.0180041    
     31100        2000  -0              4.1338446      4.2971261      5.0180048    
     31200        2000  -0              4.1338422      4.2971223      5.0180057    
     31300        2000  -0              4.1338399      4.2971186      5.0180066    
     31400        2000  -0              4.1338377      4.2971151      5.0180074    
     31500        2000  -0              4.1338356      4.2971116      5.0180083    
     31600        2000  -0              4.1338334      4.2971082      5.0180092    
     31700        2000  -0              4.133831       4.2971047      5.0180102    
     31800        2000  -0              4.1338284      4.2971012      5.0180113    
     31900        2000  -0              4.1338257      4.2970976      5.0180125    
     32000        2000  -0              4.1338228      4.297094       5.0180137    
     32100        2000  -0              4.1338198      4.2970904      5.0180149    
     32200        2000  -0              4.1338167      4.2970868      5.0180161    
     32300        2000  -0              4.1338137      4.2970833      5.0180174    
     32400        2000  -0              4.1338108      4.2970799      5.0180186    
     32500        2000  -0              4.1338079      4.2970766      5.0180199    
     32600        2000  -0              4.1338052      4.2970734      5.0180212    
     32700        2000  -0              4.1338036      4.2970694      5.0180229    
     32800        2000  -0              4.1338008      4.2970665      5.0180242    
     32900        2000  -0              4.1337979      4.2970633      5.0180257    
     33000        2000  -0              4.1337948      4.29706        5.0180268    
     33100        2000  -0              4.1337917      4.2970568      5.0180282    
     33200        2000  -0              4.1337884      4.2970535      5.0180296    
     33300        2000  -0              4.1337851      4.2970502      5.0180309    
     33400        2000  -0              4.1337818      4.297047       5.0180323    
     33500        2000  -0              4.1337785      4.2970438      5.0180337    
     33600        2000  -0              4.1337753      4.2970406      5.018035     
     33700        2000  -0              4.1337718      4.2970375      5.0180365    
     33800        2000  -0              4.133769       4.2970346      5.0180378    
     33900        2000  -0              4.1337661      4.2970315      5.0180389    
     34000        2000  -0              4.1337631      4.2970285      5.0180402    
     34100        2000  -0              4.13376        4.2970255      5.0180416    
     34200        2000  -0              4.1337569      4.2970224      5.0180429    
     34300        2000  -0              4.1337537      4.2970193      5.0180442    
     34400        2000  -0              4.1337505      4.2970162      5.0180455    
     34500        2000  -0              4.1337473      4.2970132      5.0180467    
     34600        2000  -0              4.1337439      4.2970101      5.0180481    
     34700        2000  -0              4.1337406      4.2970071      5.0180496    
     34800        2000  -0              4.1337377      4.2970045      5.0180509    
     34900        2000  -0              4.1337342      4.2970011      5.0180522    
     35000        2000  -0              4.133731       4.2969981      5.0180536    
     35100        2000  -0              4.1337278      4.2969951      5.018055     
     35200        2000  -0              4.1337246      4.2969921      5.0180564    
     35300        2000  -0              4.1337214      4.2969891      5.0180578    
     35400        2000  -0              4.1337184      4.296986       5.018059     
     35500        2000  -0              4.133715       4.296983       5.0180605    
     35600        2000  -0              4.1337117      4.2969799      5.018062     
     35700        2000  -0              4.1337086      4.2969772      5.0180634    
     35800        2000  -0              4.133705       4.2969738      5.0180649    
     35900        2000  -0              4.1337017      4.2969708      5.0180663    
     36000        2000  -0              4.1336984      4.2969677      5.0180677    
     36100        2000  -0              4.1336952      4.2969648      5.0180691    
     36200        2000  -0              4.133692       4.2969618      5.0180705    
     36300        2000  -0              4.1336887      4.2969588      5.0180721    
     36400        2000  -0              4.1336856      4.2969558      5.0180734    
     36500        2000  -0              4.1336823      4.2969529      5.0180748    
     36600        2000  -0              4.1336793      4.2969502      5.0180762    
     36700        2000  -0              4.1336758      4.2969469      5.0180777    
     36800        2000  -0              4.1336725      4.2969439      5.0180791    
     36900        2000  -0              4.1336692      4.2969409      5.0180805    
     37000        2000  -0              4.1336659      4.2969379      5.018082     
     37100        2000  -0              4.1336627      4.2969349      5.0180834    
     37200        2000  -0              4.1336593      4.2969319      5.018085     
     37300        2000  -0              4.1336561      4.2969289      5.0180863    
     37400        2000  -0              4.1336529      4.296926       5.0180878    
     37500        2000  -0              4.1336497      4.2969231      5.0180892    
     37600        2000  -0              4.1336464      4.2969202      5.0180906    
     37700        2000  -0              4.1336432      4.2969172      5.0180921    
     37800        2000  -0              4.13364        4.2969142      5.0180935    
     37900        2000  -0              4.1336367      4.2969113      5.018095     
     38000        2000  -0              4.1336334      4.2969083      5.0180964    
     38100        2000  -0              4.1336301      4.2969053      5.0180979    
     38200        2000  -0              4.1336269      4.2969024      5.0180993    
     38300        2000  -0              4.1336236      4.2968995      5.0181008    
     38400        2000  -0              4.1336203      4.2968965      5.0181022    
     38500        2000  -0              4.1336171      4.2968936      5.0181037    
     38600        2000  -0              4.1336138      4.2968907      5.0181051    
     38700        2000  -0              4.1336106      4.2968878      5.0181066    
     38800        2000  -0              4.1336073      4.2968849      5.0181081    
     38900        2000  -0              4.1336041      4.296882       5.0181095    
     39000        2000  -0              4.1336008      4.2968791      5.018111     
     39100        2000  -0              4.1335976      4.2968762      5.0181124    
     39200        2000  -0              4.1335943      4.2968732      5.0181139    
     39300        2000  -0              4.1335891      4.2968774      5.0181169    
     39400        2000  -0              4.1335872      4.2968673      5.0181147    
     39500        2000  -0              4.1335843      4.2968652      5.0181192    
     39600        2000  -0              4.1335808      4.2968621      5.0181191    
     39700        2000  -0              4.133578       4.2968592      5.0181208    
     39800        2000  -0              4.1335747      4.2968561      5.0181229    
     39900        2000  -0              4.1335714      4.2968532      5.0181242    
     40000        2000  -0              4.1335678      4.2968504      5.0181254    
     40100        2000  -0              4.1335648      4.2968474      5.0181272    
     40200        2000  -0              4.1335616      4.2968446      5.0181288    
     40300        2000  -0              4.1335583      4.2968416      5.0181298    
     40400        2000  -0              4.133555       4.2968388      5.0181315    
     40500        2000  -0              4.1335518      4.2968359      5.0181331    
     40600        2000  -0              4.1335485      4.296833       5.0181343    
     40700        2000  -0              4.1335452      4.2968303      5.0181357    
     40800        2000  -0              4.133542       4.2968273      5.0181374    
     40900        2000  -0              4.1335391      4.2968248      5.0181388    
     41000        2000  -0              4.1335356      4.2968216      5.0181402    
     41100        2000  -0              4.1335325      4.2968188      5.0181417    
     41200        2000  -0              4.1335292      4.2968161      5.0181431    
     41300        2000  -0              4.133526       4.2968132      5.0181445    
     41400        2000  -0              4.1335255      4.2968112      5.018146     
     41500        2000  -0              4.1335193      4.2968093      5.0181473    
     41600        2000  -0              4.133517       4.2968052      5.0181485    
     41700        2000  -0              4.1335136      4.2968028      5.0181498    
     41800        2000  -0              4.1335105      4.2968003      5.0181511    
     41900        2000  -0              4.1335074      4.2967977      5.0181525    
     42000        2000  -0              4.1335042      4.2967951      5.0181537    
     42100        2000  -0              4.1335013      4.2967926      5.0181548    
     42200        2000  -0              4.1334989      4.2967908      5.0181564    
     42300        2000  -0              4.1334953      4.296788       5.0181575    
     42400        2000  -0              4.1334919      4.2967852      5.018159     
     42500        2000  -0              4.1334888      4.2967825      5.0181602    
     42600        2000  -0              4.1334856      4.29678        5.0181614    
     42700        2000  -0              4.1334826      4.2967775      5.0181626    
     42800        2000  -0              4.1334795      4.296775       5.0181641    
     42900        2000  -0              4.1334764      4.2967727      5.0181654    
     43000        2000  -0              4.1334732      4.2967699      5.0181667    
     43100        2000  -0              4.1334701      4.2967675      5.018168     
     43200        2000  -0              4.133467       4.296765       5.0181693    
     43300        2000  -0              4.1334648      4.2967617      5.0181704    
     43400        2000  -0              4.1334608      4.2967599      5.018172     
     43500        2000  -0              4.1334577      4.2967575      5.018173     
     43600        2000  -0              4.1334546      4.296755       5.0181745    
     43700        2000  -0              4.1334515      4.2967525      5.0181758    
     43800        2000  -0              4.1334483      4.29675        5.018177     
     43900        2000  -0              4.1334453      4.2967476      5.0181781    
     44000        2000  -0              4.1334421      4.2967451      5.0181796    
     44100        2000  -0              4.133439       4.2967426      5.0181809    
     44200        2000  -0              4.1334361      4.2967404      5.0181822    
     44300        2000  -0              4.1334328      4.2967377      5.0181836    
     44400        2000  -0              4.1334297      4.2967352      5.0181848    
     44500        2000  -0              4.1334268      4.2967455      5.0181842    
     44600        2000  -0              4.1334225      4.2967298      5.0181898    
     44700        2000  -0              4.1334204      4.2967279      5.0181875    
     44800        2000  -0              4.1334174      4.2967254      5.0181903    
     44900        2000  -0              4.1334143      4.296723       5.0181916    
     45000        2000  -0              4.1334111      4.2967203      5.0181923    
     45100        2000  -0              4.133408       4.296718       5.0181937    
     45200        2000  -0              4.133405       4.2967157      5.0181954    
     45300        2000  -0              4.1334017      4.2967132      5.0181962    
     45400        2000  -0              4.1333986      4.2967107      5.0181974    
     45500        2000  -0              4.1333956      4.2967084      5.0181991    
     45600        2000  -0              4.1333924      4.296706       5.0182001    
     45700        2000  -0              4.1333892      4.2967036      5.0182013    
     45800        2000  -0              4.1333862      4.2967012      5.0182028    
     45900        2000  -0              4.1333831      4.2966988      5.018204     
     46000        2000  -0              4.1333799      4.2966965      5.0182051    
     46100        2000  -0              4.1333769      4.296694       5.0182066    
     46200        2000  -0              4.1333739      4.2966917      5.0182079    
     46300        2000  -0              4.1333708      4.2966893      5.018209     
     46400        2000  -0              4.1333678      4.2966869      5.0182103    
     46500        2000  -0              4.1333648      4.2966846      5.0182117    
     46600        2000  -0              4.1333618      4.2966822      5.0182129    
     46700        2000  -0              4.1333588      4.2966798      5.0182141    
     46800        2000  -0              4.1333559      4.2966775      5.0182154    
     46900        2000  -0              4.1333529      4.2966752      5.0182166    
     47000        2000  -0              4.1333501      4.296673       5.0182178    
     47100        2000  -0              4.1333471      4.2966705      5.0182191    
     47200        2000  -0              4.1333442      4.2966682      5.0182204    
     47300        2000  -0              4.1333387      4.296671       5.0182204    
     47400        2000  -0              4.1333384      4.2966639      5.0182232    
     47500        2000  -0              4.1333361      4.2966616      5.0182244    
     47600        2000  -0              4.1333327      4.2966591      5.0182247    
     47700        2000  -0              4.1333299      4.2966578      5.0182259    
     47800        2000  -0              4.133327       4.2966558      5.0182278    
     47900        2000  -0              4.1333243      4.2966542      5.0182278    
     48000        2000  -0              4.1333211      4.2966521      5.018229     
     48100        2000  -0              4.1333184      4.2966506      5.0182303    
     48200        2000  -0              4.1333154      4.2966487      5.0182313    
     48300        2000  -0              4.1333125      4.296647       5.0182319    
     48400        2000  -0              4.1333099      4.2966454      5.0182334    
     48500        2000  -0              4.1333069      4.2966434      5.0182345    
     48600        2000  -0              4.133304       4.2966416      5.0182353    
     48700        2000  -0              4.1333013      4.2966399      5.0182364    
     48800        2000  -0              4.1332985      4.2966382      5.0182375    
     48900        2000  -0              4.1332958      4.2966366      5.0182383    
     49000        2000  -0              4.1332918      4.2966352      5.0182413    
     49100        2000  -0              4.1332901      4.2966333      5.0182394    
     49200        2000  -0              4.1332874      4.2966311      5.0182416    
     49300        2000  -0              4.1332856      4.2966293      5.0182427    
     49400        2000  -0              4.1332835      4.2966269      5.0182432    
     49500        2000  -0              4.1332814      4.2966247      5.0182441    
     49600        2000  -0              4.1332795      4.2966225      5.0182457    
     49700        2000  -0              4.1332765      4.2966272      5.0182478    
     49800        2000  -0              4.1332746      4.2966185      5.0182453    
     49900        2000  -0              4.1332726      4.2966167      5.0182498    
     50000        2000  -0              4.1332709      4.2966142      5.0182495    
     50100        2000  -0              4.1332687      4.2966112      5.0182505    
     50200        2000  -0              4.1332653      4.2966148      5.018251     
     50300        2000  -0              4.133264       4.2966069      5.0182537    
     50400        2000  -0              4.1332589      4.2966105      5.018253     
     50500        2000  -0              4.1332597      4.2966148      5.0182548    
     50600        2000  -0              4.1332496      4.29664        5.0182515    
     50700        2000  -0              4.1332448      4.2966261      5.0182555    
     50800        2000  -0              4.133248       4.296608       5.0182574    
     50900        2000  -0              4.1332511      4.2965984      5.01826      
     51000        2000  -0              4.1332503      4.2965934      5.0182607    
     51100        2000  -0              4.1332483      4.2965906      5.0182609    
     51200        2000  -0              4.1332466      4.2965883      5.0182625    
     51300        2000  -0              4.1332447      4.296586       5.0182641    
     51400        2000  -0              4.1332428      4.2965835      5.0182642    
     51500        2000  -0              4.1332408      4.2965813      5.0182655    
     51600        2000  -0              4.1332391      4.2965791      5.0182669    
     51700        2000  -0              4.1332371      4.2965768      5.0182677    
     51800        2000  -0              4.1332373      4.2965777      5.0182683    
     51900        2000  -0              4.1332331      4.2965726      5.0182702    
     52000        2000  -0              4.1332314      4.29657        5.0182705    
     52100        2000  -0              4.1332295      4.2965677      5.0182719    
     52200        2000  -0              4.1332277      4.2965657      5.0182732    
     52300        2000  -0              4.1332258      4.2965634      5.018274     
     52400        2000  -0              4.1332239      4.2965613      5.0182747    
     52500        2000  -0              4.1332222      4.2965593      5.0182761    
     52600        2000  -0              4.13322        4.2965568      5.0182773    
     52700        2000  -0              4.1332181      4.2965546      5.0182781    
     52800        2000  -0              4.133216       4.2965526      5.0182793    
     52900        2000  -0              4.1332142      4.2965503      5.0182805    
     53000        2000  -0              4.1332126      4.2965484      5.0182814    
     53100        2000  -0              4.1332105      4.296546       5.0182824    
     53200        2000  -0              4.1332086      4.296544       5.0182836    
     53300        2000  -0              4.1332065      4.2965417      5.0182847    
     53400        2000  -0              4.133205       4.2965399      5.0182856    
     53500        2000  -0              4.1332028      4.2965374      5.0182867    
     53600        2000  -0              4.1332008      4.2965353      5.0182876    
     53700        2000  -0              4.1331993      4.2965328      5.0182888    
     53800        2000  -0              4.1331976      4.2965311      5.0182897    
     53900        2000  -0              4.1331955      4.2965286      5.0182907    
     54000        2000  -0              4.1331936      4.2965263      5.0182917    
     54100        2000  -0              4.1331913      4.2965244      5.0182927    
     54200        2000  -0              4.1331888      4.2965222      5.0182941    
     54300        2000  -0              4.1331866      4.2965204      5.0182955    
     54400        2000  -0              4.133184       4.296518       5.018297     
     54500        2000  -0              4.1331816      4.2965157      5.0182984    
     54600        2000  -0              4.1331792      4.2965133      5.0183001    
     54700        2000  -0              4.1331769      4.2965109      5.0183018    
     54800        2000  -0              4.1331746      4.2965084      5.0183036    
     54900        2000  -0              4.1331726      4.2965061      5.0183056    
     55000        2000  -0              4.1331702      4.296503       5.0183076    
     55100        2000  -0              4.1331682      4.2965002      5.0183097    
     55200        2000  -0              4.1331659      4.2964973      5.0183121    
     55300        2000  -0              4.1331642      4.2964942      5.0183143    
     55400        2000  -0              4.1331625      4.2964912      5.0183166    
     55500        2000  -0              4.1331608      4.2964881      5.018319     
     55600        2000  -0              4.1331591      4.2964849      5.0183215    
     55700        2000  -0              4.1331575      4.2964816      5.018324     
     55800        2000  -0              4.1331559      4.2964784      5.0183266    
     55900        2000  -0              4.1331543      4.2964751      5.0183291    
     56000        2000  -0              4.1331526      4.2964718      5.0183318    
     56100        2000  -0              4.1331511      4.2964686      5.0183343    
     56200        2000  -0              4.1331497      4.2964658      5.0183369    
     56300        2000  -0              4.1331478      4.2964622      5.0183394    
     56400        2000  -0              4.133146       4.296459       5.0183418    
     56500        2000  -0              4.1331442      4.296456       5.0183443    
     56600        2000  -0              4.133142       4.2964531      5.0183467    
     56700        2000  -0              4.1331402      4.29645        5.0183489    
     56800        2000  -0              4.1331383      4.2964472      5.0183511    
     56900        2000  -0              4.1331362      4.2964444      5.0183532    
     57000        2000  -0              4.1331339      4.2964417      5.0183553    
     57100        2000  -0              4.1331316      4.2964391      5.0183573    
     57200        2000  -0              4.1331293      4.2964365      5.0183592    
     57300        2000  -0              4.1331268      4.296434       5.0183611    
     57400        2000  -0              4.1331226      4.2964303      5.0183636    
     57500        2000  -0              4.1331196      4.2964277      5.0183651    
     57600        2000  -0              4.133117       4.2964256      5.0183674    
     57700        2000  -0              4.1331141      4.2964232      5.018369     
     57800        2000  -0              4.1331112      4.2964208      5.0183703    
     57900        2000  -0              4.1331084      4.2964188      5.018372     
     58000        2000  -0              4.1331055      4.2964165      5.0183739    
     58100        2000  -0              4.1331025      4.2964143      5.0183752    
     58200        2000  -0              4.1330996      4.2964122      5.0183768    
     58300        2000  -0              4.1330966      4.2964102      5.0183783    
     58400        2000  -0              4.1330936      4.296408       5.0183798    
     58500        2000  -0              4.1330906      4.2964061      5.0183812    
     58600        2000  -0              4.1330875      4.2964038      5.0183828    
     58700        2000  -0              4.1330845      4.2964018      5.0183841    
     58800        2000  -0              4.1330815      4.2963999      5.0183856    
     58900        2000  -0              4.1330783      4.2963977      5.018387     
     59000        2000  -0              4.1330752      4.2963957      5.0183884    
     59100        2000  -0              4.1330721      4.2963937      5.0183898    
     59200        2000  -0              4.1330692      4.296392       5.0183912    
     59300        2000  -0              4.1330659      4.2963897      5.0183926    
     59400        2000  -0              4.1330627      4.2963877      5.0183939    
     59500        2000  -0              4.1330596      4.2963857      5.0183954    
     59600        2000  -0              4.1330567      4.2963841      5.0183968    
     59700        2000  -0              4.1330533      4.2963817      5.0183981    
     59800        2000  -0              4.1330501      4.2963797      5.0183995    
     59900        2000  -0              4.1330469      4.2963777      5.018401     
     60000        2000  -0              4.1330441      4.2963761      5.0184023    
     60100        2000  -0              4.1330406      4.2963738      5.0184036    
     60200        2000  -0              4.1330375      4.2963718      5.018405     
     60300        2000  -0              4.133034       4.2963698      5.0184065    
     60400        2000  -0              4.133031       4.2963678      5.0184078    
     60500        2000  -0              4.1330282      4.2963662      5.0184091    
     60600        2000  -0              4.1330247      4.2963639      5.0184105    
     60700        2000  -0              4.1330216      4.2963619      5.0184118    
     60800        2000  -0              4.1330185      4.2963599      5.0184132    
     60900        2000  -0              4.1330152      4.296358       5.0184145    
     61000        2000  -0              4.1330122      4.2963563      5.018416     
     61100        2000  -0              4.1330088      4.296354       5.0184173    
     61200        2000  -0              4.1330056      4.296352       5.0184187    
     61300        2000  -0              4.1330025      4.2963501      5.0184197    
     61400        2000  -0              4.1329992      4.2963481      5.0184213    
     61500        2000  -0              4.1329959      4.2963461      5.0184228    
     61600        2000  -0              4.1329928      4.2963441      5.0184241    
     61700        2000  -0              4.1329896      4.2963421      5.0184255    
     61800        2000  -0              4.1329864      4.2963401      5.0184269    
     61900        2000  -0              4.1329835      4.2963386      5.0184282    
     62000        2000  -0              4.13298        4.2963362      5.0184296    
     62100        2000  -0              4.1329768      4.2963342      5.0184309    
     62200        2000  -0              4.1329734      4.2963323      5.0184324    
     62300        2000  -0              4.1329703      4.2963302      5.0184337    
     62400        2000  -0              4.1329672      4.2963283      5.018435     
     62500        2000  -0              4.132964       4.2963263      5.0184363    
     62600        2000  -0              4.1329608      4.2963244      5.0184377    
     62700        2000  -0              4.1329576      4.2963224      5.018439     
     62800        2000  -0              4.1329545      4.2963204      5.0184403    
     62900        2000  -0              4.1329512      4.2963184      5.0184417    
     63000        2000  -0              4.1329479      4.2963165      5.0184431    
     63100        2000  -0              4.1329449      4.2963147      5.0184444    
     63200        2000  -0              4.1329416      4.2963125      5.0184458    
     63300        2000  -0              4.1329384      4.2963105      5.0184471    
     63400        2000  -0              4.1329352      4.2963086      5.0184485    
     63500        2000  -0              4.132932       4.2963066      5.0184499    
     63600        2000  -0              4.1329288      4.2963046      5.0184511    
     63700        2000  -0              4.1329256      4.2963027      5.0184525    
     63800        2000  -0              4.1329224      4.2963007      5.0184538    
     63900        2000  -0              4.1329191      4.296299       5.0184551    
     64000        2000  -0              4.132916       4.2962969      5.0184565    
     64100        2000  -0              4.1329128      4.296295       5.0184578    
     64200        2000  -0              4.1329097      4.2962931      5.0184591    
     64300        2000  -0              4.1329064      4.2962913      5.0184605    
     64400        2000  -0              4.1329033      4.2962893      5.0184618    
     64500        2000  -0              4.1329004      4.2962877      5.0184631    
     64600        2000  -0              4.1328971      4.2962856      5.0184644    
     64700        2000  -0              4.1328939      4.2962837      5.0184657    
     64800        2000  -0              4.1328908      4.296282       5.0184666    
     64900        2000  -0              4.1328875      4.29628        5.0184681    
     65000        2000  -0              4.1328844      4.2962783      5.0184695    
     65100        2000  -0              4.1328812      4.2962763      5.0184707    
     65200        2000  -0              4.1328777      4.2962745      5.018472     
     65300        2000  -0              4.1328747      4.2962726      5.0184733    
     65400        2000  -0              4.1328719      4.296271       5.0184744    
     65500        2000  -0              4.1328685      4.2962689      5.0184757    
     65600        2000  -0              4.1328653      4.2962671      5.0184769    
     65700        2000  -0              4.1328623      4.2962653      5.0184779    
     65800        2000  -0              4.1328593      4.2962639      5.0184794    
     65900        2000  -0              4.1328558      4.2962616      5.0184807    
     66000        2000  -0              4.1328526      4.2962597      5.0184819    
     66100        2000  -0              4.1328494      4.2962579      5.0184832    
     66200        2000  -0              4.1328463      4.2962561      5.0184844    
     66300        2000  -0              4.1328431      4.2962543      5.0184856    
     66400        2000  -0              4.1328399      4.2962524      5.0184869    
     66500        2000  -0              4.1328368      4.2962506      5.0184881    
     66600        2000  -0              4.1328336      4.2962488      5.0184893    
     66700        2000  -0              4.1328305      4.2962471      5.0184903    
     66800        2000  -0              4.1328276      4.2962455      5.0184918    
     66900        2000  -0              4.1328253      4.2962433      5.018493     
     67000        2000  -0              4.1328208      4.2962415      5.0184946    
     67100        2000  -0              4.1328177      4.2962396      5.0184955    
     67200        2000  -0              4.1328146      4.2962378      5.0184968    
     67300        2000  -0              4.1328115      4.2962359      5.018498     
     67400        2000  -0              4.1328084      4.2962341      5.018499     
     67500        2000  -0              4.1328052      4.2962323      5.0185004    
     67600        2000  -0              4.132802       4.2962305      5.0185017    
     67700        2000  -0              4.1327988      4.2962286      5.0185028    
     67800        2000  -0              4.1327957      4.2962268      5.0185041    
     67900        2000  -0              4.1327926      4.296225       5.0185053    
     68000        2000  -0              4.1327893      4.2962232      5.0185065    
     68100        2000  -0              4.1327862      4.2962213      5.0185077    
     68200        2000  -0              4.1327831      4.2962195      5.018509     
     68300        2000  -0              4.1327799      4.2962177      5.0185102    
     68400        2000  -0              4.1327768      4.2962158      5.0185114    
     68500        2000  -0              4.1327737      4.296214       5.0185126    
     68600        2000  -0              4.1327705      4.2962122      5.0185138    
     68700        2000  -0              4.1327674      4.2962104      5.018515     
     68800        2000  -0              4.1327642      4.2962085      5.0185163    
     68900        2000  -0              4.1327613      4.296207       5.0185175    
     69000        2000  -0              4.1327579      4.2962048      5.0185187    
     69100        2000  -0              4.1327548      4.2962029      5.0185199    
     69200        2000  -0              4.1327518      4.2962013      5.0185211    
     69300        2000  -0              4.1327485      4.2961992      5.0185224    
     69400        2000  -0              4.1327453      4.2961973      5.0185237    
     69500        2000  -0              4.1327423      4.2961954      5.0185248    
     69600        2000  -0              4.1327391      4.2961935      5.0185261    
     69700        2000  -0              4.132736       4.2961916      5.0185274    
     69800        2000  -0              4.1327331      4.29619        5.0185285    
     69900        2000  -0              4.1327298      4.2961878      5.0185299    
     70000        2000  -0              4.1327267      4.2961859      5.018531     
     70100        2000  -0              4.1327237      4.296184       5.0185321    
     70200        2000  -0              4.1327205      4.2961821      5.0185335    
     70300        2000  -0              4.1327173      4.2961802      5.0185348    
     70400        2000  -0              4.1327141      4.2961783      5.0185361    
     70500        2000  -0              4.1327111      4.2961763      5.0185373    
     70600        2000  -0              4.1327081      4.2961743      5.0185386    
     70700        2000  -0              4.132705       4.2961724      5.0185398    
     70800        2000  -0              4.1327019      4.2961704      5.018541     
     70900        2000  -0              4.1326991      4.2961689      5.0185424    
     71000        2000  -0              4.1326958      4.2961665      5.0185435    
     71100        2000  -0              4.1326929      4.2961648      5.0185449    
     71200        2000  -0              4.1326896      4.2961625      5.0185461    
     71300        2000  -0              4.1326866      4.2961608      5.0185475    
     71400        2000  -0              4.1326835      4.2961587      5.0185484    
     71500        2000  -0              4.1326804      4.2961565      5.0185499    
     71600        2000  -0              4.1326774      4.2961546      5.0185511    
     71700        2000  -0              4.1326743      4.2961526      5.0185524    
     71800        2000  -0              4.1326716      4.2961509      5.0185535    
     71900        2000  -0              4.1326682      4.2961486      5.0185549    
     72000        2000  -0              4.132665       4.2961467      5.0185562    
     72100        2000  -0              4.1326622      4.2961448      5.0185575    
     72200        2000  -0              4.132659       4.2961425      5.0185588    
     72300        2000  -0              4.132656       4.2961406      5.0185598    
     72400        2000  -0              4.1326529      4.2961384      5.0185612    
     72500        2000  -0              4.1326499      4.2961364      5.0185626    
     72600        2000  -0              4.1326468      4.2961344      5.0185638    
     72700        2000  -0              4.1326438      4.2961324      5.018565     
     72800        2000  -0              4.1326408      4.2961304      5.0185662    
     72900        2000  -0              4.1326377      4.2961283      5.0185676    
     73000        2000  -0              4.1326345      4.2961264      5.0185687    
     73100        2000  -0              4.1326317      4.2961247      5.01857      
     73200        2000  -0              4.1326285      4.2961226      5.0185712    
     73300        2000  -0              4.1326252      4.2961207      5.0185726    
     73400        2000  -0              4.1326225      4.296119       5.0185735    
     73500        2000  -0              4.1326195      4.296117       5.0185746    
     73600        2000  -0              4.1326163      4.2961149      5.018576     
     73700        2000  -0              4.1326129      4.2961123      5.0185775    
     73800        2000  -0              4.13261        4.2961104      5.018579     
     73900        2000  -0              4.1326067      4.2961083      5.0185802    
     74000        2000  -0              4.1326036      4.2961062      5.0185815    
     74100        2000  -0              4.1326005      4.2961041      5.0185829    
     74200        2000  -0              4.1325972      4.2961021      5.0185842    
     74300        2000  -0              4.1325942      4.2960999      5.0185855    
     74400        2000  -0              4.1325912      4.2960978      5.0185869    
     74500        2000  -0              4.1325881      4.2960958      5.0185882    
     74600        2000  -0              4.1325853      4.2960941      5.0185893    
     74700        2000  -0              4.1325819      4.2960917      5.0185908    
     74800        2000  -0              4.1325786      4.2960896      5.0185918    
     74900        2000  -0              4.1325759      4.2960879      5.0185934    
     75000        2000  -0              4.1325727      4.2960856      5.0185949    
     75100        2000  -0              4.1325694      4.2960836      5.0185963    
     75200        2000  -0              4.1325661      4.2960811      5.0185977    
     75300        2000  -0              4.1325637      4.2960794      5.0185988    
     75400        2000  -0              4.1325605      4.2960773      5.0185999    
     75500        2000  -0              4.1325575      4.2960752      5.0186013    
     75600        2000  -0              4.1325539      4.2960728      5.018603     
     75700        2000  -0              4.1325511      4.2960707      5.0186044    
     75800        2000  -0              4.1325479      4.2960681      5.0186061    
     75900        2000  -0              4.1325445      4.2960651      5.0186076    
     76000        2000  -0              4.1325416      4.2960632      5.0186093    
     76100        2000  -0              4.1325384      4.2960608      5.018611     
     76200        2000  -0              4.1325353      4.2960584      5.0186127    
     76300        2000  -0              4.1325325      4.2960564      5.0186143    
     76400        2000  -0              4.1325293      4.296054       5.0186157    
     76500        2000  -0              4.132526       4.2960516      5.0186176    
     76600        2000  -0              4.132523       4.2960492      5.0186191    
     76700        2000  -0              4.1325199      4.296047       5.0186208    
     76800        2000  -0              4.1325169      4.2960444      5.0186224    
     76900        2000  -0              4.1325137      4.296042       5.018624     
     77000        2000  -0              4.1325106      4.2960394      5.0186257    
     77100        2000  -0              4.132505       4.2960363      5.0186265    
     77200        2000  -0              4.1325018      4.2960344      5.0186278    
     77300        2000  -0              4.1324985      4.2960318      5.0186292    
     77400        2000  -0              4.1324953      4.2960293      5.0186311    
     77500        2000  -0              4.1324918      4.2960265      5.0186324    
     77600        2000  -0              4.1324889      4.2960243      5.0186341    
     77700        2000  -0              4.1324858      4.2960219      5.0186359    
     77800        2000  -0              4.1324825      4.2960195      5.0186374    
     77900        2000  -0              4.1324796      4.2960173      5.0186389    
     78000        2000  -0              4.1324766      4.2960149      5.0186406    
     78100        2000  -0              4.1324736      4.2960129      5.0186419    
     78200        2000  -0              4.1324706      4.2960104      5.0186434    
     78300        2000  -0              4.1324671      4.296008       5.0186454    
     78400        2000  -0              4.1324642      4.2960057      5.0186466    
     78500        2000  -0              4.1324611      4.2960031      5.018648     
     78600        2000  -0              4.1324579      4.2960006      5.0186498    
     78700        2000  -0              4.1324547      4.295998       5.0186512    
     78800        2000  -0              4.1324515      4.2959958      5.0186527    
     78900        2000  -0              4.1324483      4.2959932      5.0186544    
     79000        2000  -0              4.1324454      4.2959909      5.0186558    
     79100        2000  -0              4.1324423      4.2959885      5.0186575    
     79200        2000  -0              4.1324392      4.2959861      5.0186591    
     79300        2000  -0              4.1324361      4.2959837      5.0186606    
     79400        2000  -0              4.132433       4.2959813      5.0186622    
     79500        2000  -0              4.1324302      4.2959792      5.0186638    
     79600        2000  -0              4.1324272      4.2959768      5.018665     
     79700        2000  -0              4.1324237      4.295974       5.0186668    
     79800        2000  -0              4.1324206      4.2959716      5.0186684    
     79900        2000  -0              4.1324175      4.2959691      5.01867      
     80000        2000  -0              4.1324146      4.2959666      5.0186715    
     80100        2000  -0              4.1324119      4.2959644      5.018673     
     80200        2000  -0              4.1324083      4.2959618      5.0186747    
     80300        2000  -0              4.1324055      4.2959595      5.0186762    
     80400        2000  -0              4.1324025      4.2959569      5.0186777    
     80500        2000  -0              4.1323998      4.2959549      5.0186792    
     80600        2000  -0              4.1323968      4.2959525      5.0186805    
     80700        2000  -0              4.1323936      4.29595        5.0186822    
     80800        2000  -0              4.1323907      4.2959476      5.0186836    
     80900        2000  -0              4.1323877      4.295945       5.0186853    
     81000        2000  -0              4.1323845      4.2959424      5.0186869    
     81100        2000  -0              4.1323812      4.2959397      5.0186886    
     81200        2000  -0              4.1323782      4.2959374      5.0186901    
     81300        2000  -0              4.1323753      4.2959349      5.0186916    
     81400        2000  -0              4.1323722      4.2959325      5.0186931    
     81500        2000  -0              4.1323697      4.2959303      5.0186944    
     81600        2000  -0              4.1323663      4.2959276      5.0186961    
     81700        2000  -0              4.1323635      4.2959254      5.0186979    
     81800        2000  -0              4.1323603      4.2959227      5.0186992    
     81900        2000  -0              4.1323571      4.2959202      5.0187008    
     82000        2000  -0              4.1323542      4.2959177      5.0187024    
     82100        2000  -0              4.1323518      4.2959157      5.0187037    
     82200        2000  -0              4.1323483      4.295913       5.0187045    
     82300        2000  -0              4.1323455      4.2959107      5.018707     
     82400        2000  -0              4.1323425      4.2959081      5.0187082    
     82500        2000  -0              4.1323395      4.2959055      5.0187099    
     82600        2000  -0              4.1323366      4.2959034      5.0187116    
     82700        2000  -0              4.1323336      4.2959007      5.0187128    
     82800        2000  -0              4.1323304      4.2958982      5.0187146    
     82900        2000  -0              4.1323276      4.2958957      5.0187161    
     83000        2000  -0              4.1323248      4.2958935      5.0187177    
     83100        2000  -0              4.1323221      4.2958913      5.0187187    
     83200        2000  -0              4.1323188      4.2958885      5.0187204    
     83300        2000  -0              4.1323158      4.2958859      5.0187221    
     83400        2000  -0              4.1323126      4.2958834      5.0187239    
     83500        2000  -0              4.1323099      4.2958809      5.0187252    
     83600        2000  -0              4.1323067      4.2958785      5.0187269    
     83700        2000  -0              4.1323041      4.2958761      5.0187283    
     83800        2000  -0              4.1323011      4.2958736      5.0187299    
     83900        2000  -0              4.1322982      4.2958733      5.0187313    
     84000        2000  -0              4.1322955      4.2958688      5.0187326    
     84100        2000  -0              4.132293       4.2958668      5.0187342    
     84200        2000  -0              4.1322899      4.2958643      5.0187354    
     84300        2000  -0              4.1322872      4.2958619      5.0187371    
     84400        2000  -0              4.1322842      4.2958594      5.0187385    
     84500        2000  -0              4.1322813      4.2958569      5.0187401    
     84600        2000  -0              4.1322786      4.2958546      5.0187416    
     84700        2000  -0              4.1322755      4.2958521      5.0187432    
     84800        2000  -0              4.1322723      4.2958492      5.0187449    
     84900        2000  -0              4.1322694      4.295847       5.0187465    
     85000        2000  -0              4.1322666      4.2958442      5.0187479    
     85100        2000  -0              4.1322636      4.2958417      5.0187495    
     85200        2000  -0              4.1322608      4.2958393      5.018751     
     85300        2000  -0              4.132258       4.2958369      5.0187525    
     85400        2000  -0              4.1322551      4.2958345      5.018754     
     85500        2000  -0              4.1322526      4.2958326      5.0187553    
     85600        2000  -0              4.1322497      4.2958301      5.0187568    
     85700        2000  -0              4.1322464      4.2958272      5.0187584    
     85800        2000  -0              4.1322436      4.2958247      5.01876      
     85900        2000  -0              4.1322408      4.2958223      5.0187615    
     86000        2000  -0              4.1322379      4.2958198      5.0187631    
     86100        2000  -0              4.1322351      4.2958176      5.0187647    
     86200        2000  -0              4.1322326      4.2958152      5.0187661    
     86300        2000  -0              4.1322292      4.2958125      5.0187678    
     86400        2000  -0              4.1322264      4.2958101      5.0187687    
     86500        2000  -0              4.1322241      4.2958079      5.018771     
     86600        2000  -0              4.1322213      4.2958054      5.0187734    
     86700        2000  -0              4.1322182      4.2958028      5.0187746    
     86800        2000  -0              4.1322155      4.2958008      5.0187767    
     86900        2000  -0              4.1322125      4.2957978      5.018778     
     87000        2000  -0              4.1322096      4.2957954      5.0187791    
     87100        2000  -0              4.1322067      4.2957931      5.0187809    
     87200        2000  -0              4.1322042      4.2957908      5.0187825    
     87300        2000  -0              4.1322014      4.2957883      5.0187838    
     87400        2000  -0              4.1321985      4.2957861      5.0187853    
     87500        2000  -0              4.1321955      4.2957835      5.0187869    
     87600        2000  -0              4.1321928      4.2957809      5.0187884    
     87700        2000  -0              4.1321901      4.2957787      5.0187897    
     87800        2000  -0              4.1321873      4.2957761      5.0187914    
     87900        2000  -0              4.1321842      4.2957737      5.0187928    
     88000        2000  -0              4.1321812      4.295771       5.0187944    
     88100        2000  -0              4.1321782      4.2957687      5.018796     
     88200        2000  -0              4.1321752      4.2957661      5.0187978    
     88300        2000  -0              4.1321725      4.2957637      5.018799     
     88400        2000  -0              4.1321695      4.2957611      5.0188005    
     88500        2000  -0              4.1321667      4.2957587      5.0188021    
     88600        2000  -0              4.132164       4.2957561      5.0188035    
     88700        2000  -0              4.1321611      4.2957533      5.0188053    
     88800        2000  -0              4.1321581      4.2957511      5.0188069    
     88900        2000  -0              4.1321554      4.2957484      5.0188082    
     89000        2000  -0              4.1321523      4.2957459      5.0188101    
     89100        2000  -0              4.1321496      4.2957434      5.0188113    
     89200        2000  -0              4.1321468      4.295741       5.0188129    
     89300        2000  -0              4.1321438      4.2957384      5.0188146    
     89400        2000  -0              4.1321411      4.2957358      5.0188159    
     89500        2000  -0              4.1321383      4.2957333      5.0188175    
     89600        2000  -0              4.1321354      4.2957308      5.018819     
     89700        2000  -0              4.1321326      4.2957284      5.0188205    
     89800        2000  -0              4.1321298      4.2957258      5.0188221    
     89900        2000  -0              4.132127       4.2957233      5.0188235    
     90000        2000  -0              4.1321241      4.2957208      5.0188251    
     90100        2000  -0              4.1321214      4.2957182      5.0188266    
     90200        2000  -0              4.1321186      4.2957157      5.0188281    
     90300        2000  -0              4.1321157      4.2957132      5.0188297    
     90400        2000  -0              4.1321129      4.2957107      5.0188313    
     90500        2000  -0              4.1321101      4.2957081      5.0188329    
     90600        2000  -0              4.1321074      4.2957057      5.0188343    
     90700        2000  -0              4.1321046      4.2957032      5.0188358    
     90800        2000  -0              4.1321019      4.2957008      5.0188373    
     90900        2000  -0              4.1320992      4.2956982      5.0188384    
     91000        2000  -0              4.1320964      4.2956957      5.0188405    
     91100        2000  -0              4.1320937      4.2956932      5.0188421    
     91200        2000  -0              4.1320915      4.2956911      5.0188435    
     91300        2000  -0              4.1320905      4.2956898      5.0188452    
     91400        2000  -0              4.1320878      4.2956871      5.0188466    
     91500        2000  -0              4.1320848      4.2956845      5.0188483    
     91600        2000  -0              4.1320822      4.2956818      5.0188498    
     91700        2000  -0              4.1320793      4.2956794      5.0188513    
     91800        2000  -0              4.1320765      4.2956768      5.0188529    
     91900        2000  -0              4.1320738      4.2956743      5.0188543    
     92000        2000  -0              4.132071       4.2956716      5.0188557    
     92100        2000  -0              4.1320681      4.2956692      5.0188574    
     92200        2000  -0              4.1320653      4.2956667      5.0188589    
     92300        2000  -0              4.1320625      4.2956641      5.0188604    
     92400        2000  -0              4.1320598      4.2956616      5.0188619    
     92500        2000  -0              4.132057       4.2956591      5.0188633    
     92600        2000  -0              4.1320542      4.2956565      5.0188649    
     92700        2000  -0              4.1320512      4.2956542      5.0188664    
     92800        2000  -0              4.1320482      4.2956519      5.0188678    
     92900        2000  -0              4.1320453      4.2956496      5.018869     
     93000        2000  -0              4.1320423      4.2956473      5.0188705    
     93100        2000  -0              4.1320392      4.2956452      5.0188719    
     93200        2000  -0              4.1320362      4.2956431      5.0188732    
     93300        2000  -0              4.1320332      4.2956407      5.0188749    
     93400        2000  -0              4.1320303      4.2956386      5.0188762    
     93500        2000  -0              4.1320272      4.2956364      5.0188776    
     93600        2000  -0              4.1320242      4.295634       5.0188791    
     93700        2000  -0              4.1320211      4.2956317      5.0188807    
     93800        2000  -0              4.1320181      4.2956294      5.0188821    
     93900        2000  -0              4.132015       4.2956272      5.0188835    
     94000        2000  -0              4.132012       4.2956248      5.018885     
     94100        2000  -0              4.1320091      4.2956227      5.0188856    
     94200        2000  -0              4.132006       4.2956202      5.0188879    
     94300        2000  -0              4.1320029      4.295618       5.0188894    
     94400        2000  -0              4.1319998      4.2956158      5.0188909    
     94500        2000  -0              4.1319969      4.2956134      5.0188922    
     94600        2000  -0              4.1319938      4.2956112      5.0188937    
     94700        2000  -0              4.1319908      4.2956089      5.018895     
     94800        2000  -0              4.1319878      4.2956066      5.0188966    
     94900        2000  -0              4.1319848      4.2956045      5.0188972    
     95000        2000  -0              4.1319816      4.2956021      5.0188996    
     95100        2000  -0              4.1319788      4.2955999      5.0189002    
     95200        2000  -0              4.1319757      4.2955975      5.0189023    
     95300        2000  -0              4.1319726      4.2955952      5.0189038    
     95400        2000  -0              4.1319696      4.295593       5.0189049    
     95500        2000  -0              4.1319667      4.2955909      5.0189058    
     95600        2000  -0              4.1319635      4.2955884      5.0189081    
     95700        2000  -0              4.1319606      4.2955861      5.0189094    
     95800        2000  -0              4.1319574      4.295584       5.0189109    
     95900        2000  -0              4.1319544      4.2955817      5.0189124    
     96000        2000  -0              4.1319516      4.2955794      5.0189137    
     96100        2000  -0              4.1319485      4.2955772      5.0189148    
     96200        2000  -0              4.1319455      4.295575       5.0189164    
     96300        2000  -0              4.1319425      4.2955726      5.018918     
     96400        2000  -0              4.1319394      4.2955704      5.0189194    
     96500        2000  -0              4.1319365      4.2955681      5.0189208    
     96600        2000  -0              4.1319335      4.2955658      5.0189222    
     96700        2000  -0              4.1319304      4.2955638      5.0189235    
     96800        2000  -0              4.1319275      4.2955616      5.0189242    
     96900        2000  -0              4.1319245      4.2955591      5.0189264    
     97000        2000  -0              4.1319215      4.2955568      5.0189279    
     97100        2000  -0              4.1319184      4.2955546      5.0189293    
     97200        2000  -0              4.1319154      4.2955523      5.0189307    
     97300        2000  -0              4.1319125      4.2955502      5.018932     
     97400        2000  -0              4.1319095      4.2955478      5.0189335    
     97500        2000  -0              4.1319065      4.2955478      5.018935     
     97600        2000  -0              4.1319036      4.2955434      5.0189361    
     97700        2000  -0              4.1319006      4.2955411      5.0189377    
     97800        2000  -0              4.1318978      4.2955385      5.0189391    
     97900        2000  -0              4.1318948      4.2955363      5.0189406    
     98000        2000  -0              4.131892       4.2955338      5.0189419    
     98100        2000  -0              4.131889       4.2955316      5.0189434    
     98200        2000  -0              4.1318847      4.2955296      5.0189448    
     98300        2000  -0              4.1318818      4.2955272      5.0189462    
     98400        2000  -0              4.1318787      4.295525       5.0189476    
     98500        2000  -0              4.1318756      4.2955227      5.018949     
     98600        2000  -0              4.1318726      4.2955205      5.0189504    
     98700        2000  -0              4.1318697      4.2955183      5.0189517    
     98800        2000  -0              4.1318667      4.2955159      5.0189531    
     98900        2000  -0              4.1318636      4.2955138      5.0189546    
     99000        2000  -0              4.1318609      4.2955114      5.0189559    
     99100        2000  -0              4.1318577      4.2955095      5.0189571    
     99200        2000  -0              4.1318548      4.295507       5.0189584    
     99300        2000  -0              4.1318517      4.2955049      5.0189598    
     99400        2000  -0              4.1318488      4.295503       5.0189601    
     99500        2000  -0              4.1318457      4.2955006      5.0189622    
     99600        2000  -0              4.1318427      4.2954983      5.0189636    
     99700        2000  -0              4.1318398      4.295496       5.0189649    
     99800        2000  -0              4.1318367      4.2954939      5.0189662    
     99900        2000  -0              4.1318337      4.2954917      5.0189674    
    100000        2000  -0              4.1318309      4.2954897      5.018968     
Loop time of 17.5134 on 4 procs for 100000 steps with 2000 atoms

Performance: 493337.305 tau/day, 5709.923 timesteps/s, 11.420 Matom-step/s
98.9% CPU use with 4 MPI tasks x 1 OpenMP threads

MPI task timing breakdown:
Section |  min time  |  avg time  |  max time  |%varavg| %total
---------------------------------------------------------------
Pair    | 9.6893     | 10.012     | 10.58      |  10.8 | 57.17
Neigh   | 0.4104     | 0.41988    | 0.43531    |   1.6 |  2.40
Comm    | 1.5022     | 2.1416     | 2.5283     |  26.3 | 12.23
Output  | 0.0096902  | 0.010793   | 0.013791   |   1.7 |  0.06
Modify  | 4.6834     | 4.7352     | 4.7923     |   1.8 | 27.04
Other   |            | 0.1943     |            |       |  1.11

Nlocal:            500 ave         504 max         496 min
Histogram: 2 0 0 0 0 0 0 0 0 2
Nghost:         540.25 ave         544 max         534 min
Histogram: 1 0 0 0 0 1 0 0 0 2
Neighs:           2415 ave        2560 max        2355 min
Histogram: 2 1 0 0 0 0 0 0 0 1

Total # of neighbors = 9660
Ave neighs/atom = 4.83
Neighbor list builds = 4887
Dangerous builds = 0

Total wall time: 0:00:17
