LAMMPS (2 Sep 2026)

units               lj
dimension           2
boundary            p m p
atom_style          sphere
comm_modify         vel yes

region              box block -5 5 0 25 -0.5 0.5
create_box          1 box
Created orthogonal box = (-5 0 -0.5) to (5 25 0.5)
  1 by 4 by 1 MPI processor grid

lattice             sq 2.0
Lattice spacing in x,y,z = 0.70710678 0.70710678 0.70710678
region              box_trimmed block $(xlo+0.5) $(xhi-0.5) $(ylo+0.5) $(yhi-0.5) EDGE EDGE units box
region              box_trimmed block -4.5 $(xhi-0.5) $(ylo+0.5) $(yhi-0.5) EDGE EDGE units box
region              box_trimmed block -4.5 4.5 $(ylo+0.5) $(yhi-0.5) EDGE EDGE units box
region              box_trimmed block -4.5 4.5 0.5 $(yhi-0.5) EDGE EDGE units box
region              box_trimmed block -4.5 4.5 0.5 24.5 EDGE EDGE units box
create_atoms        1 region box_trimmed
Created 442 atoms
  using lattice units in orthogonal box = (-5 0 -0.5) to (5 25 0.5)
  create_atoms CPU = 0.000 seconds

variable            diameters atom normal(0.5,0.1,54321846)
set                 group all diameter v_diameters
Setting atom values ...
  442 settings made for diameter
velocity            all create 1e-5 325435

pair_style          granular
pair_coeff          * * hertz 1 0.5 tangential linear_history 1.0 0.5 0.1

fix                 integrator all nve/sphere
fix                 grav all gravity 1e-5 chute 0
fix                 wall all wall/gran granular hooke 10.0 0.5                              tangential linear_history 1.0 0.5 0.1                              yplane 0.0 NULL contacts

#run                 0

timestep            0.05
thermo_style        custom step ke press vol pxx pyy pxy
thermo              1000

#dump                1 all custom 10000 atomDump id type radius x y z vx vy

run                 100000
Generated 0 of 0 mixed pair_coeff terms from geometric mixing rule
Neighbor list info ...
  update: every = 1 steps, delay = 0 steps, check = yes
  max neighbors/atom: 2000, page size: 100000
  master list distance cutoff = 1.0511795
  ghost atom cutoff = 1.0511795
  binsize = 0.52558974, bins = 20 48 1
  1 neighbor lists, perpetual/occasional/extra = 1 0 0
  (1) pair granular, perpetual
      attributes: half, newton on, size, history
      pair build: half/size/bin/atomonly/newton
      stencil: half/bin/2d
      bin: standard
Per MPI rank memory allocation (min/avg/max) = 11.33 | 11.33 | 11.33 Mbytes
   Step         KinEng         Press          Volume          Pxx            Pyy            Pxy      
         0   9.9773756e-06  2.1319415e-05  250            2.4891861e-05  1.7746969e-05 -7.7321995e-07
      1000   8.516833e-06   3.5703719e-05  250            3.4029325e-05  3.7378114e-05 -3.8434381e-06
      2000   7.5452471e-06  3.0710671e-05  250            3.1443274e-05  2.9978067e-05  3.0669124e-06
      3000   7.0174205e-06  2.6366386e-05  250.9712       2.6439176e-05  2.6293595e-05 -2.1796766e-06
      4000   6.65479e-06    2.6425306e-05  254.58545      2.4261636e-05  2.8588976e-05 -7.0545743e-07
      5000   6.514239e-06   2.069204e-05   258.41418      2.0161681e-05  2.1222399e-05 -6.9039329e-07
      6000   6.4895235e-06  2.3116839e-05  261.43279      1.9356103e-05  2.6877574e-05 -4.026407e-07 
      7000   6.7370487e-06  2.2390286e-05  264.13134      1.8661691e-05  2.611888e-05  -1.7598658e-06
      8000   7.2080631e-06  1.7797334e-05  266.5601       1.2617423e-05  2.2977245e-05  1.4188171e-07
      9000   7.513943e-06   2.4187257e-05  269.38173      2.0452599e-05  2.7921914e-05  1.7780334e-07
     10000   7.941842e-06   2.498812e-05   272.8356       1.3681954e-05  3.6294286e-05 -1.3659912e-07
     11000   8.4808231e-06  2.1934296e-05  275.29782      1.2125944e-05  3.1742648e-05  1.4253776e-06
     12000   8.9602186e-06  2.4942773e-05  277.97957      1.3275183e-05  3.6610362e-05  1.1316796e-06
     13000   9.5559319e-06  2.7045168e-05  280.3009       1.5206441e-05  3.8883896e-05 -7.2062692e-07
     14000   1.0260566e-05  2.8148793e-05  282.4389       1.4201971e-05  4.2095614e-05  8.6253602e-09
     15000   1.0866372e-05  3.110286e-05   283.83929      1.5710702e-05  4.6495017e-05  4.854791e-07 
     16000   1.1419178e-05  3.5993441e-05  285.41599      2.0247463e-05  5.173942e-05   2.1043915e-07
     17000   1.2258543e-05  3.1780482e-05  287.01952      1.4977232e-05  4.8583731e-05  7.784954e-07 
     18000   1.2889579e-05  3.7158271e-05  288.48973      2.0993484e-05  5.3323059e-05  1.1540213e-06
     19000   1.358604e-05   3.9060895e-05  289.96883      1.6317203e-05  6.1804587e-05  4.3424389e-06
     20000   1.4176422e-05  4.2790594e-05  291.14432      2.3565779e-05  6.201541e-05   4.0403028e-06
     21000   1.4557731e-05  5.0160007e-05  292.04003      3.114233e-05   6.9177684e-05  5.5058686e-07
     22000   1.46896e-05    5.9994722e-05  292.67533      3.528149e-05   8.4707955e-05  1.6100443e-06
     23000   1.4458512e-05  7.0168061e-05  293.06364      4.2111289e-05  9.8224833e-05 -4.5212631e-07
     24000   1.4332115e-05  6.9239769e-05  293.22474      4.891137e-05   8.9568167e-05  1.3516754e-06
     25000   1.3903864e-05  8.104629e-05   293.11672      5.4187202e-05  0.00010790538  2.5102028e-06
     26000   1.3725879e-05  7.3575562e-05  292.78016      5.241649e-05   9.4734634e-05 -1.0467904e-06
     27000   1.2930322e-05  7.9467199e-05  292.23631      5.7668634e-05  0.00010126576  1.2360845e-06
     28000   1.2250351e-05  8.7650112e-05  291.41682      6.2208711e-05  0.00011309151 -1.9565071e-06
     29000   1.1418395e-05  9.5868824e-05  290.13451      7.5174202e-05  0.00011656345 -2.4279453e-06
     30000   1.0783221e-05  9.4807253e-05  288.83783      7.660028e-05   0.00011301423 -2.8059007e-06
     31000   9.8879547e-06  9.152903e-05   287.27325      7.8050384e-05  0.00010500768  8.4436532e-06
     32000   9.300068e-06   8.3571283e-05  285.49217      6.9584166e-05  9.7558401e-05  3.3391327e-06
     33000   8.6433627e-06  7.5562888e-05  283.45619      6.4421008e-05  8.6704768e-05 -2.5006968e-06
     34000   7.5999853e-06  8.9820476e-05  280.75431      7.8329177e-05  0.00010131177 -6.5852393e-07
     35000   6.720429e-06   9.4703761e-05  278.27203      8.6374105e-05  0.00010303342 -3.2228947e-06
     36000   6.2434845e-06  8.8467105e-05  275.46938      8.3295046e-05  9.3639164e-05 -1.7217802e-08
     37000   5.4928863e-06  8.944913e-05   272.41969      8.0816064e-05  9.8082195e-05 -5.9501588e-06
     38000   4.8029834e-06  8.5076224e-05  269.12843      8.0848661e-05  8.9303786e-05 -5.2988872e-07
     39000   3.7640618e-06  8.7161704e-05  265.64389      8.1801949e-05  9.2521459e-05  2.5664877e-06
     40000   3.2744615e-06  7.609094e-05   261.90039      7.0152943e-05  8.2028938e-05 -1.2314158e-06
     41000   2.6612468e-06  7.6123532e-05  257.21359      7.4101728e-05  7.8145336e-05 -7.775151e-07 
     42000   2.2762954e-06  6.89981e-05    253.06068      6.3681199e-05  7.4315e-05     1.606758e-06 
     43000   2.0994891e-06  6.6379779e-05  250            6.38837e-05    6.8875859e-05  9.7541871e-07
     44000   1.9468788e-06  5.470206e-05   250            5.1437202e-05  5.7966918e-05  2.0266099e-06
     45000   1.757278e-06   4.9581428e-05  250            4.866018e-05   5.0502676e-05  4.3165766e-07
     46000   1.506644e-06   5.1516654e-05  250            5.116503e-05   5.1868278e-05 -3.5808964e-07
     47000   1.3481809e-06  5.0191066e-05  250            4.9002258e-05  5.1379874e-05  1.6617504e-06
     48000   1.268999e-06   5.3913907e-05  250            5.2634211e-05  5.5193602e-05 -3.0975151e-06
     49000   1.1643324e-06  5.2316932e-05  250            5.1329959e-05  5.3303906e-05  6.7079544e-07
     50000   1.0233655e-06  5.074314e-05   250            4.9384633e-05  5.2101647e-05 -1.0927112e-06
     51000   8.3578293e-07  5.3864334e-05  250            5.0221536e-05  5.7507131e-05  1.4542699e-07
     52000   7.5054825e-07  5.5810595e-05  250            5.1995896e-05  5.9625295e-05  1.0382664e-06
     53000   6.4727404e-07  5.9759988e-05  250            5.8172706e-05  6.134727e-05  -3.1245813e-07
     54000   6.0147725e-07  5.5363332e-05  250            5.6612149e-05  5.4114515e-05  1.5328824e-06
     55000   5.5963927e-07  4.7793966e-05  250            4.9829865e-05  4.5758068e-05  1.6997248e-06
     56000   5.1695649e-07  4.3356127e-05  250            4.5609504e-05  4.110275e-05   1.1473297e-06
     57000   5.1340759e-07  4.0914415e-05  250            4.3698898e-05  3.8129933e-05  1.6164325e-06
     58000   5.0764073e-07  4.2117917e-05  250            4.3804605e-05  4.043123e-05   2.0879896e-06
     59000   5.2585962e-07  4.4482957e-05  250            4.4525617e-05  4.4440298e-05  1.0237733e-06
     60000   5.4712973e-07  4.6827651e-05  250            4.6002153e-05  4.7653149e-05  1.054828e-06 
     61000   5.1545916e-07  5.0832412e-05  250            5.1379687e-05  5.0285137e-05  2.0501907e-06
     62000   4.8659336e-07  5.275009e-05   250            5.2298144e-05  5.3202036e-05  1.2653421e-06
     63000   3.4925898e-07  5.6918185e-05  250            5.5907021e-05  5.792935e-05   1.003042e-06 
     64000   2.4409946e-07  6.1994347e-05  250            6.1064603e-05  6.2924092e-05 -5.4509681e-07
     65000   2.1140698e-07  5.9088298e-05  250            5.881435e-05   5.9362245e-05  4.1756283e-07
     66000   1.9730537e-07  5.1100982e-05  250            5.4082259e-05  4.8119705e-05 -5.7240582e-07
     67000   1.7264352e-07  4.4626478e-05  250            4.7374375e-05  4.187858e-05   2.8191801e-07
     68000   1.4890474e-07  4.0788967e-05  250            4.3214474e-05  3.836346e-05  -2.2315343e-09
     69000   1.3935443e-07  4.0168168e-05  250            4.1350905e-05  3.8985431e-05 -5.6103634e-07
     70000   1.3694956e-07  4.2733503e-05  250            4.3549783e-05  4.1917224e-05 -1.1230611e-06
     71000   1.3463732e-07  4.5266507e-05  250            4.4737129e-05  4.5795885e-05 -8.0305305e-07
     72000   1.3789578e-07  4.8071698e-05  250            4.7916369e-05  4.8227028e-05 -1.2144108e-06
     73000   1.4562724e-07  4.9412305e-05  250            4.8808631e-05  5.0015979e-05 -2.320743e-07 
     74000   1.1839752e-07  5.3020283e-05  250            5.296308e-05   5.3077486e-05  1.5975783e-07
     75000   1.2174412e-07  5.0699186e-05  250            4.9982898e-05  5.1415474e-05  6.3024787e-07
     76000   1.0743531e-07  5.0297244e-05  250            5.0946392e-05  4.9648097e-05  1.3468056e-07
     77000   1.0901058e-07  4.8459207e-05  250            4.9218303e-05  4.7700111e-05  7.9312641e-07
     78000   1.1232962e-07  4.6373744e-05  250            4.7868041e-05  4.4879448e-05  8.2646407e-07
     79000   7.5387226e-08  4.9713384e-05  250            5.1237602e-05  4.8189167e-05  6.6726803e-07
     80000   5.4377639e-08  5.0278334e-05  250            4.9927398e-05  5.062927e-05   4.1451572e-07
     81000   4.8138711e-08  5.0617245e-05  250            5.0357334e-05  5.0877156e-05  3.0133816e-07
     82000   4.5103081e-08  4.9852029e-05  250            5.1005297e-05  4.869876e-05   6.6948695e-08
     83000   4.5008402e-08  4.7064324e-05  250            4.922482e-05   4.4903828e-05  1.5827186e-07
     84000   4.5170702e-08  4.5602268e-05  250            4.8175498e-05  4.3029038e-05 -1.2740832e-07
     85000   3.9333079e-08  4.6238428e-05  250            4.7921885e-05  4.4554971e-05 -4.5502688e-07
     86000   3.6052392e-08  4.789643e-05   250            4.8312125e-05  4.7480736e-05 -1.1696174e-06
     87000   3.5275376e-08  4.947743e-05   250            4.9114663e-05  4.9840197e-05 -1.2393078e-06
     88000   3.4610579e-08  5.0365297e-05  250            5.0372831e-05  5.0357763e-05 -1.1200597e-06
     89000   2.51699e-08    4.9996514e-05  250            5.0211974e-05  4.9781054e-05 -1.1273878e-06
     90000   1.3047673e-08  4.9676113e-05  250            5.1158215e-05  4.819401e-05  -6.2966585e-07
     91000   7.6399056e-09  4.8096905e-05  250            4.8995186e-05  4.7198625e-05 -6.0257636e-07
     92000   6.3471173e-09  4.6473754e-05  250            4.8357021e-05  4.4590488e-05 -6.2882872e-07
     93000   4.9553662e-09  4.6018262e-05  250            4.8284314e-05  4.3752209e-05 -3.6804742e-07
     94000   4.4357448e-09  4.6495544e-05  250            4.7942223e-05  4.5048865e-05 -5.0666944e-07
     95000   4.3092843e-09  4.7839368e-05  250            4.8463454e-05  4.7215281e-05 -1.8263791e-07
     96000   5.1139796e-09  4.8960275e-05  250            4.8805408e-05  4.9115142e-05  1.3727739e-07
     97000   2.7398616e-09  4.9473756e-05  250            4.9354944e-05  4.9592568e-05  5.9753068e-07
     98000   1.365737e-09   4.9171681e-05  250            4.953845e-05   4.8804912e-05  1.8727821e-07
     99000   9.2441179e-10  4.7894991e-05  250            4.9344314e-05  4.6445669e-05  1.7895869e-07
    100000   5.7088878e-10  4.7027494e-05  250            4.8729081e-05  4.5325906e-05 -3.2925579e-07
Loop time of 7.09491 on 4 procs for 100000 steps with 442 atoms

Performance: 60888723.171 tau/day, 14094.612 timesteps/s, 6.230 Matom-step/s
99.5% CPU use with 4 MPI tasks x no OpenMP threads

MPI task timing breakdown:
Section |  min time  |  avg time  |  max time  |%varavg| %total
---------------------------------------------------------------
Pair    | 0.036416   | 1.8076     | 5.1836     | 155.5 | 25.48
Neigh   | 0.00067214 | 0.0064092  | 0.014854   |   7.1 |  0.09
Comm    | 0.39172    | 1.7313     | 4.1848     | 112.3 | 24.40
Output  | 0.0019714  | 0.0048708  | 0.0082807  |   4.0 |  0.07
Modify  | 0.064345   | 0.39399    | 0.86698    |  51.3 |  5.55
Other   |            | 3.151      |            |       | 44.41

Nlocal:          110.5 ave         258 max           0 min
Histogram: 2 0 0 0 0 0 0 1 0 1
Nghost:          48.75 ave         105 max           0 min
Histogram: 2 0 0 0 0 0 0 0 1 1
Neighs:         357.25 ave         866 max           0 min
Histogram: 2 0 0 0 0 0 1 0 0 1

Total # of neighbors = 1429
Ave neighs/atom = 3.2330317
Neighbor list builds = 376
Dangerous builds = 0

variable            wall_contact atom f_wall[1]>0
group               newwall variable wall_contact
19 atoms in group newwall
group               notwall subtract all newwall
423 atoms in group notwall

run                 0
Generated 0 of 0 mixed pair_coeff terms from geometric mixing rule
Per MPI rank memory allocation (min/avg/max) = 11.33 | 11.33 | 11.33 Mbytes
   Step         KinEng         Press          Volume          Pxx            Pyy            Pxy      
    100000   5.7088878e-10  4.7027488e-05  250            4.8729075e-05  4.5325902e-05 -3.2925688e-07
Loop time of 2.55375e-06 on 4 procs for 0 steps with 442 atoms

107.7% CPU use with 4 MPI tasks x no OpenMP threads

MPI task timing breakdown:
Section |  min time  |  avg time  |  max time  |%varavg| %total
---------------------------------------------------------------
Pair    | 0          | 0          | 0          |   0.0 |  0.00
Neigh   | 0          | 0          | 0          |   0.0 |  0.00
Comm    | 0          | 0          | 0          |   0.0 |  0.00
Output  | 0          | 0          | 0          |   0.0 |  0.00
Modify  | 0          | 0          | 0          |   0.0 |  0.00
Other   |            | 2.554e-06  |            |       |100.00

Nlocal:          110.5 ave         258 max           0 min
Histogram: 2 0 0 0 0 0 0 1 0 1
Nghost:          48.75 ave         105 max           0 min
Histogram: 2 0 0 0 0 0 0 0 1 1
Neighs:            358 ave         866 max           0 min
Histogram: 2 0 0 0 0 0 1 0 0 1

Total # of neighbors = 1432
Ave neighs/atom = 3.239819
Neighbor list builds = 0
Dangerous builds = 0

unfix               grav
unfix               integrator

fix                 integrator notwall nve/sphere
fix                 grav notwall gravity 1e-5 chute 20
fix                 wallc newwall freeze

compute             mybins notwall chunk/atom  bin/1d y center 0.5 units box
compute             ccont all continuum/chunk mybins 4.0 2.0 natoms velocity/x velocity/y
compute             cprop all property/chunk mybins count coord1
fix                 ave all ave/time 1000 100 100000 c_cprop[*] c_ccont[*] mode vector #file cg_fields.txt

run                 100000

CITE-CITE-CITE-CITE-CITE-CITE-CITE-CITE-CITE-CITE-CITE-CITE-CITE

Your simulation uses code contributions which should be cited:

- Coarse-graining procedure: doi:10.1007/s10035-010-0181-z

@Article{Goldhirsch2010,
 author = {Goldhirsch, Isaac},
 title = {{Stress, stress asymmetry and couple stress: From discrete particles to continuous fields}},
 journal = {Granular Matter},
 year =    2010,
 volume =  12,
 number =  3,
 pages =   {239--252}
}

CITE-CITE-CITE-CITE-CITE-CITE-CITE-CITE-CITE-CITE-CITE-CITE-CITE

Generated 0 of 0 mixed pair_coeff terms from geometric mixing rule
Per MPI rank memory allocation (min/avg/max) = 11.33 | 11.34 | 11.34 Mbytes
   Step         KinEng         Press          Volume          Pxx            Pyy            Pxy      
    100000   5.7088878e-10  4.7027363e-05  250            4.872905e-05   4.5325676e-05 -3.2931872e-07
    101000   6.3710115e-09  4.6393365e-05  250            4.8220574e-05  4.4566155e-05 -2.1319609e-06
    102000   1.8880382e-08  4.5892059e-05  250            4.7263374e-05  4.4520744e-05 -4.3383885e-06
    103000   3.4723049e-08  4.5277432e-05  250            4.5922707e-05  4.4632157e-05 -6.4088263e-06
    104000   5.1595776e-08  4.4841905e-05  250            4.504985e-05   4.4633961e-05 -8.1632958e-06
    105000   6.7964005e-08  4.4954371e-05  250            4.4919297e-05  4.4989444e-05 -9.8565482e-06
    106000   8.201883e-08   4.6112211e-05  250            4.6000807e-05  4.6223614e-05 -1.1745223e-05
    107000   9.3051038e-08  4.7001485e-05  250            4.7023011e-05  4.6979958e-05 -1.2591798e-05
    108000   1.0434567e-07  4.6831878e-05  250            4.6941323e-05  4.6722432e-05 -1.2763362e-05
    109000   1.1560172e-07  4.5946277e-05  250            4.5916598e-05  4.5975956e-05 -1.2747493e-05
    110000   1.2666112e-07  4.4882494e-05  250            4.5333215e-05  4.4431774e-05 -1.252035e-05 
    111000   1.3678175e-07  4.4232451e-05  250            4.4850358e-05  4.3614545e-05 -1.3183802e-05
    112000   1.4649143e-07  4.4724379e-05  250            4.5616885e-05  4.3831873e-05 -1.3749181e-05
    113000   1.5563091e-07  4.5377131e-05  250            4.596331e-05   4.4790952e-05 -1.3744929e-05
    114000   1.6577311e-07  4.6746658e-05  250            4.8031131e-05  4.5462185e-05 -1.3745521e-05
    115000   1.786562e-07   4.6699279e-05  250            4.8099102e-05  4.5299455e-05 -1.3121337e-05
    116000   1.9277382e-07  4.6645523e-05  250            4.8260243e-05  4.5030804e-05 -1.3223284e-05
    117000   2.0549828e-07  4.7362645e-05  250            4.917947e-05   4.5545819e-05 -1.3134351e-05
    118000   2.2251032e-07  4.5961628e-05  250            4.8441929e-05  4.3481327e-05 -1.1925363e-05
    119000   2.5156294e-07  4.2378045e-05  250            4.5616491e-05  3.9139599e-05 -1.0299338e-05
    120000   2.8208797e-07  4.1045746e-05  250            4.394065e-05   3.8150841e-05 -9.7337812e-06
    121000   3.1274195e-07  4.2723822e-05  250            4.3502234e-05  4.194541e-05  -1.0290113e-05
    122000   3.4441326e-07  4.5759463e-05  250            4.6537972e-05  4.4980954e-05 -1.1153079e-05
    123000   3.782474e-07   4.6853482e-05  250            4.7955359e-05  4.5751605e-05 -1.0722123e-05
    124000   4.0427553e-07  4.9525083e-05  250            5.0444526e-05  4.8605641e-05 -1.1229241e-05
    125000   4.2124139e-07  5.2989238e-05  250            5.4723616e-05  5.1254861e-05 -1.2592855e-05
    126000   4.3754542e-07  5.4538708e-05  250            5.5860103e-05  5.3217314e-05 -1.3632339e-05
    127000   4.5707941e-07  5.4758345e-05  250            5.6300568e-05  5.3216123e-05 -1.3301238e-05
    128000   4.7726376e-07  5.1034466e-05  250            5.4249828e-05  4.7819104e-05 -1.357433e-05 
    129000   5.0801453e-07  4.5423537e-05  250            4.9161798e-05  4.1685275e-05 -1.0590054e-05
    130000   5.504471e-07   3.9907838e-05  250            4.3123089e-05  3.6692587e-05 -7.4467911e-06
    131000   6.0345703e-07  3.6674684e-05  250            4.0215861e-05  3.3133507e-05 -7.7569801e-06
    132000   6.6249389e-07  3.6671654e-05  250            3.9296193e-05  3.4047114e-05 -7.8372055e-06
    133000   7.4232581e-07  3.6952439e-05  250            3.8691244e-05  3.5213634e-05 -6.7671104e-06
    134000   8.0962761e-07  4.4239407e-05  250            4.7728267e-05  4.0750546e-05 -8.4299534e-06
    135000   8.4917075e-07  5.3882583e-05  250            5.5105561e-05  5.2659605e-05 -1.3756335e-05
    136000   8.8674422e-07  6.129943e-05   250            6.3735328e-05  5.8863531e-05 -1.1824542e-05
    137000   9.5449659e-07  6.0572143e-05  250            6.6329123e-05  5.4815163e-05 -1.0538255e-05
    138000   9.9611866e-07  5.9144271e-05  250            6.4734353e-05  5.3554189e-05 -1.2336811e-05
    139000   1.0589617e-06  5.3313593e-05  250            6.0452688e-05  4.6174498e-05 -9.0096106e-06
    140000   1.1421972e-06  4.497781e-05   250            5.0644482e-05  3.9311137e-05 -6.1290095e-06
    141000   1.2149585e-06  4.0758909e-05  250            4.4754201e-05  3.6763618e-05 -8.6962866e-06
    142000   1.3027841e-06  3.8192921e-05  250            4.2496879e-05  3.3888964e-05 -6.9732494e-06
    143000   1.4021335e-06  4.0120508e-05  250            4.3109833e-05  3.7131184e-05 -9.4903795e-06
    144000   1.485952e-06   4.5398344e-05  250            4.7048912e-05  4.3747777e-05 -1.0679404e-05
    145000   1.5873343e-06  4.6943085e-05  250            4.963954e-05   4.4246629e-05 -1.1473076e-05
    146000   1.6313667e-06  5.3207988e-05  250            5.545139e-05   5.0964586e-05 -1.2255816e-05
    147000   1.6277551e-06  6.3116717e-05  250            6.5924984e-05  6.030845e-05  -1.6599135e-05
    148000   1.6458729e-06  6.5325831e-05  250            6.6321253e-05  6.433041e-05  -1.2990313e-05
    149000   1.7209525e-06  5.446021e-05   250            5.920671e-05   4.971371e-05  -1.1313618e-05
    150000   1.7390516e-06  5.2483166e-05  250            5.7503004e-05  4.7463327e-05 -1.4249818e-05
    151000   1.7526887e-06  4.991007e-05   250            5.857576e-05   4.124438e-05  -1.3016872e-05
    152000   1.7746808e-06  4.9007229e-05  250            5.9555017e-05  3.845944e-05  -1.1971023e-05
    153000   1.813142e-06   5.197413e-05   250            6.0763217e-05  4.3185043e-05 -1.1737568e-05
    154000   1.8884035e-06  5.0707686e-05  250            5.928771e-05   4.2127663e-05 -9.174941e-06 
    155000   1.9598729e-06  5.0856642e-05  250            5.9363768e-05  4.2349516e-05 -1.1881685e-05
    156000   2.020792e-06   5.2095588e-05  250            6.0698854e-05  4.3492323e-05 -1.2778123e-05
    157000   2.0528054e-06  5.4973848e-05  250            6.2385228e-05  4.7562468e-05 -1.2660076e-05
    158000   2.1193608e-06  5.3778404e-05  250            6.3345525e-05  4.4211283e-05 -1.044429e-05 
    159000   2.1943621e-06  5.4850544e-05  250            6.1178762e-05  4.8522326e-05 -1.3195739e-05
    160000   2.3170894e-06  4.4159188e-05  250            5.2326655e-05  3.599172e-05  -7.514735e-06 
    161000   2.4823971e-06  3.3670534e-05  250            4.2010342e-05  2.5330725e-05 -6.2579218e-06
    162000   2.6571001e-06  3.2941385e-05  250            3.6923879e-05  2.895889e-05  -6.6037107e-06
    163000   2.7892412e-06  4.0960437e-05  250            4.8375368e-05  3.3545505e-05 -1.1140079e-05
    164000   2.9195025e-06  4.9950101e-05  250            5.6831101e-05  4.3069101e-05 -1.0088191e-05
    165000   3.029044e-06   5.7472211e-05  250            6.2226526e-05  5.2717895e-05 -1.2010942e-05
    166000   3.0539099e-06  6.9954792e-05  250            7.3606146e-05  6.6303438e-05 -1.5602186e-05
    167000   3.0813532e-06  7.3243755e-05  250            7.8824758e-05  6.7662751e-05 -1.5094056e-05
    168000   3.1788457e-06  6.2415258e-05  250            6.8080128e-05  5.6750388e-05 -1.4866362e-05
    169000   3.1730457e-06  6.3548032e-05  250            6.9187997e-05  5.7908067e-05 -1.5007541e-05
    170000   3.2027051e-06  6.0798048e-05  250            6.5556689e-05  5.6039408e-05 -1.2880549e-05
    171000   3.3097477e-06  4.8459159e-05  250            5.2158491e-05  4.4759826e-05 -7.5368993e-06
    172000   3.4577882e-06  3.4617759e-05  250            4.0996761e-05  2.8238758e-05 -4.7005568e-06
    173000   3.5797539e-06  3.6989684e-05  250            4.526857e-05   2.8710799e-05 -6.6267981e-06
    174000   3.7246272e-06  4.2151849e-05  250            5.2898754e-05  3.1404945e-05 -8.7055464e-06
    175000   3.8240343e-06  5.1040431e-05  250            5.824019e-05   4.3840672e-05 -1.1554618e-05
    176000   3.956334e-06   5.0530643e-05  250            6.0356479e-05  4.0704808e-05 -9.9109892e-06
    177000   4.0924488e-06  5.1570971e-05  250            5.7285928e-05  4.5856014e-05 -1.0977585e-05
    178000   4.1602274e-06  5.7687366e-05  250            6.3042269e-05  5.2332463e-05 -1.3770297e-05
    179000   4.1950455e-06  6.7144848e-05  250            7.0614637e-05  6.3675059e-05 -1.2868106e-05
    180000   4.3461657e-06  5.618528e-05   250            6.6913791e-05  4.545677e-05  -5.4077985e-06
    181000   4.4726452e-06  5.1467452e-05  250            6.1123129e-05  4.1811775e-05 -7.9864921e-06
    182000   4.6373588e-06  4.8462539e-05  250            5.6754381e-05  4.0170696e-05 -9.9308202e-06
    183000   4.7223315e-06  5.763879e-05   250            6.883502e-05   4.644256e-05  -1.1533484e-05
    184000   4.8634117e-06  5.5095446e-05  250            6.6326592e-05  4.38643e-05   -9.2873165e-06
    185000   5.0463657e-06  5.2473133e-05  250            6.2988192e-05  4.1958075e-05 -1.0580567e-05
    186000   5.1479752e-06  5.5736841e-05  250            6.4992571e-05  4.6481112e-05 -1.4119015e-05
    187000   5.2257251e-06  6.3131224e-05  250            7.4512136e-05  5.1750312e-05 -1.4479155e-05
    188000   5.3514096e-06  5.7382352e-05  250            6.3858451e-05  5.0906253e-05 -1.0500542e-05
    189000   5.5084664e-06  5.4209486e-05  250            6.2874444e-05  4.5544527e-05 -9.1803734e-06
    190000   5.6151533e-06  5.2053853e-05  250            6.2886784e-05  4.1220923e-05 -8.8543043e-06
    191000   5.7859263e-06  4.6203378e-05  250            6.0080433e-05  3.2326322e-05 -4.8972316e-06
    192000   5.9590623e-06  4.5056713e-05  250            5.6938771e-05  3.3174656e-05 -5.8396283e-06
    193000   6.1450898e-06  4.9708128e-05  250            5.9963406e-05  3.945285e-05  -8.8977191e-06
    194000   6.3308282e-06  5.1315792e-05  250            6.3167786e-05  3.9463797e-05 -9.4992473e-06
    195000   6.4390759e-06  6.3387335e-05  250            7.8341502e-05  4.8433169e-05 -1.7058932e-05
    196000   6.5073412e-06  7.4277822e-05  250            8.9878261e-05  5.8677382e-05 -1.6407433e-05
    197000   6.5747358e-06  7.668734e-05   250            8.8580694e-05  6.4793986e-05 -1.2742873e-05
    198000   6.7240485e-06  6.4024712e-05  250            7.5323389e-05  5.2726034e-05 -1.2630943e-05
    199000   6.7077662e-06  6.7012163e-05  250            8.0859287e-05  5.3165039e-05 -1.2053112e-05
    200000   6.7142227e-06  7.295396e-05   250            8.696187e-05   5.8946051e-05 -1.5035262e-05
Loop time of 8.03613 on 4 procs for 100000 steps with 442 atoms

Performance: 53757202.298 tau/day, 12443.797 timesteps/s, 5.500 Matom-step/s
99.5% CPU use with 4 MPI tasks x no OpenMP threads

MPI task timing breakdown:
Section |  min time  |  avg time  |  max time  |%varavg| %total
---------------------------------------------------------------
Pair    | 0.0034416  | 2.3395     | 5.9146     | 163.1 | 29.11
Neigh   | 4.037e-05  | 0.0026369  | 0.0061805  |   5.2 |  0.03
Comm    | 0.022133   | 1.102      | 3.487      | 135.3 | 13.71
Output  | 0.0015623  | 0.0022217  | 0.0031608  |   1.4 |  0.03
Modify  | 0.040811   | 0.43464    | 1.0084     |  62.8 |  5.41
Other   |            | 4.155      |            |       | 51.71

Nlocal:          110.5 ave         251 max           0 min
Histogram: 2 0 0 0 0 0 0 1 0 1
Nghost:           49.5 ave         107 max           0 min
Histogram: 2 0 0 0 0 0 0 0 1 1
Neighs:         360.75 ave         856 max           0 min
Histogram: 2 0 0 0 0 0 1 0 0 1

Total # of neighbors = 1443
Ave neighs/atom = 3.2647059
Neighbor list builds = 145
Dangerous builds = 0
Total wall time: 0:00:15
