LAMMPS (2 Sep 2026)

units               lj
dimension           2
boundary            p m p
atom_style          sphere
comm_modify         vel yes

region              box block -5 5 0 25 -0.5 0.5
create_box          1 box
Created orthogonal box = (-5 0 -0.5) to (5 25 0.5)
  1 by 1 by 1 MPI processor grid

lattice             sq 2.0
Lattice spacing in x,y,z = 0.70710678 0.70710678 0.70710678
region              box_trimmed block $(xlo+0.5) $(xhi-0.5) $(ylo+0.5) $(yhi-0.5) EDGE EDGE units box
region              box_trimmed block -4.5 $(xhi-0.5) $(ylo+0.5) $(yhi-0.5) EDGE EDGE units box
region              box_trimmed block -4.5 4.5 $(ylo+0.5) $(yhi-0.5) EDGE EDGE units box
region              box_trimmed block -4.5 4.5 0.5 $(yhi-0.5) EDGE EDGE units box
region              box_trimmed block -4.5 4.5 0.5 24.5 EDGE EDGE units box
create_atoms        1 region box_trimmed
Created 442 atoms
  using lattice units in orthogonal box = (-5 0 -0.5) to (5 25 0.5)
  create_atoms CPU = 0.000 seconds

variable            diameters atom normal(0.5,0.1,54321846)
set                 group all diameter v_diameters
Setting atom values ...
  442 settings made for diameter
velocity            all create 1e-5 325435

pair_style          granular
pair_coeff          * * hertz 1 0.5 tangential linear_history 1.0 0.5 0.1

fix                 integrator all nve/sphere
fix                 grav all gravity 1e-5 chute 0
fix                 wall all wall/gran granular hooke 10.0 0.5                              tangential linear_history 1.0 0.5 0.1                              yplane 0.0 NULL contacts

#run                 0

timestep            0.05
thermo_style        custom step ke press vol pxx pyy pxy
thermo              1000

#dump                1 all custom 10000 atomDump id type radius x y z vx vy

run                 100000
Generated 0 of 0 mixed pair_coeff terms from geometric mixing rule
Neighbor list info ...
  update: every = 1 steps, delay = 0 steps, check = yes
  max neighbors/atom: 2000, page size: 100000
  master list distance cutoff = 1.0521513
  ghost atom cutoff = 1.0521513
  binsize = 0.52607563, bins = 20 48 1
  1 neighbor lists, perpetual/occasional/extra = 1 0 0
  (1) pair granular, perpetual
      attributes: half, newton on, size, history
      pair build: half/size/bin/atomonly/newton
      stencil: half/bin/2d
      bin: standard
Per MPI rank memory allocation (min/avg/max) = 11.33 | 11.33 | 11.33 Mbytes
   Step         KinEng         Press          Volume          Pxx            Pyy            Pxy      
         0   9.9773756e-06  1.764e-05      250            1.7533031e-05  1.7746969e-05 -6.8334916e-07
      1000   8.5181016e-06  3.4402036e-05  250            3.0240835e-05  3.8563237e-05 -3.5812586e-06
      2000   7.6402425e-06  3.4421533e-05  250            3.298654e-05   3.5856526e-05 -1.88688e-06  
      3000   7.0131521e-06  2.4441896e-05  250.48309      2.3534104e-05  2.5349688e-05  3.7754454e-07
      4000   6.7618863e-06  2.2168816e-05  254.53007      1.9209392e-05  2.512824e-05  -1.784344e-06 
      5000   6.6100365e-06  1.8206275e-05  256.94599      1.6291797e-05  2.0120753e-05  5.4446125e-07
      6000   6.6141594e-06  2.0913519e-05  259.9637       1.5968817e-05  2.5858221e-05 -5.3480134e-07
      7000   6.8945391e-06  2.1471948e-05  262.57283      1.6979801e-05  2.5964095e-05  9.6518782e-07
      8000   7.1866938e-06  2.0148533e-05  264.89096      1.3641264e-05  2.6655801e-05  7.3227759e-07
      9000   7.6445812e-06  1.9965622e-05  266.96137      1.4027514e-05  2.5903729e-05  4.6636581e-07
     10000   8.1123449e-06  2.1023053e-05  268.74012      1.2153702e-05  2.9892403e-05  7.4921631e-08
     11000   8.5737867e-06  2.3571325e-05  270.26725      1.1956061e-05  3.5186589e-05 -1.0764872e-06
     12000   9.1010236e-06  2.7630262e-05  271.51804      1.9346363e-05  3.5914162e-05 -2.4616822e-06
     13000   9.7189288e-06  2.7926373e-05  272.50368      1.5269074e-05  4.0583672e-05  1.3185181e-06
     14000   1.0332063e-05  3.036452e-05   273.27724      1.6048164e-05  4.4680876e-05 -9.6910346e-08
     15000   1.0943779e-05  3.0833708e-05  273.80348      1.6654756e-05  4.501266e-05   4.3576272e-07
     16000   1.168293e-05   3.0971426e-05  274.07745      1.8595576e-05  4.3347276e-05 -5.3051769e-07
     17000   1.2278136e-05  3.2243771e-05  274.10941      1.7702635e-05  4.6784906e-05 -7.9334776e-07
     18000   1.2878293e-05  3.9147637e-05  273.88668      1.9655102e-05  5.8640173e-05  3.0646968e-06
     19000   1.3525264e-05  3.9627024e-05  273.45904      2.1136353e-05  5.8117695e-05  2.6595134e-06
     20000   1.3897187e-05  5.0427576e-05  272.66658      2.9199975e-05  7.1655176e-05  1.3359755e-06
     21000   1.4454046e-05  4.9694714e-05  271.61785      2.9059311e-05  7.0330116e-05 -3.1470323e-06
     22000   1.4698293e-05  6.1503807e-05  270.59927      3.4525783e-05  8.8481831e-05  1.5774137e-06
     23000   1.5008061e-05  6.4638575e-05  269.10192      4.580336e-05   8.3473789e-05 -1.5293489e-06
     24000   1.478009e-05   8.0806045e-05  267.39423      5.3766042e-05  0.00010784605  1.016222e-06 
     25000   1.4372411e-05  9.3622715e-05  265.44171      6.2433001e-05  0.00012481243 -2.9477529e-06
     26000   1.4029497e-05  8.9550001e-05  263.25751      6.0924207e-05  0.00011817579 -6.4212402e-08
     27000   1.3120441e-05  9.9502874e-05  260.38144      7.3852068e-05  0.00012515368 -1.2227715e-06
     28000   1.250844e-05   0.00010293281  257.81454      8.1741297e-05  0.00012412432  5.7529036e-06
     29000   1.1825119e-05  9.3962436e-05  255.0436       6.8838983e-05  0.00011908589  1.0072357e-05
     30000   1.1183072e-05  9.1051679e-05  251.3455       6.7052565e-05  0.00011505079  3.1662568e-06
     31000   1.0724138e-05  8.780069e-05   250            7.1142857e-05  0.00010445852  3.4319271e-06
     32000   1.012894e-05   8.3894633e-05  250            6.1450369e-05  0.0001063389   5.788396e-06 
     33000   9.0606337e-06  9.7129154e-05  250            8.2350606e-05  0.0001119077  -1.4899516e-06
     34000   8.1021866e-06  0.00010713086  250            8.7670585e-05  0.00012659114  1.6981949e-06
     35000   7.1552454e-06  0.00011048007  250            9.720183e-05   0.00012375831  6.6441825e-07
     36000   6.3637144e-06  0.00010787537  250            9.2972242e-05  0.0001227785   4.1367611e-06
     37000   5.7239514e-06  0.00010293663  250            9.6584804e-05  0.00010928846  2.9214365e-06
     38000   5.2821653e-06  8.4175737e-05  250            8.0354594e-05  8.7996881e-05  3.6687238e-06
     39000   4.5696528e-06  7.5131588e-05  250            7.1780276e-05  7.84829e-05    3.7560971e-08
     40000   3.9870146e-06  7.3247684e-05  250            6.928203e-05   7.7213338e-05  2.0056561e-08
     41000   3.5858552e-06  7.2751997e-05  250            7.1115487e-05  7.4388507e-05 -5.3365376e-07
     42000   3.249448e-06   7.6065593e-05  250            7.5642096e-05  7.6489091e-05 -2.4383469e-06
     43000   2.8029141e-06  7.2633745e-05  250            7.2830495e-05  7.2436995e-05  1.0795814e-06
     44000   2.5592815e-06  6.3433851e-05  250            6.2815686e-05  6.4052015e-05  9.6405431e-07
     45000   2.0600623e-06  6.9219435e-05  250            7.3161829e-05  6.5277042e-05  2.6050529e-06
     46000   1.9294473e-06  5.8739739e-05  250            5.7710098e-05  5.976938e-05   7.5368223e-08
     47000   1.6219823e-06  6.1633786e-05  250            6.0188728e-05  6.3078844e-05  1.0410565e-06
     48000   1.402399e-06   6.0207913e-05  250            6.0644701e-05  5.9771125e-05  7.5357147e-07
     49000   1.2303725e-06  5.862913e-05   250            5.9289811e-05  5.7968449e-05 -8.6142063e-07
     50000   1.1022767e-06  5.3370549e-05  250            5.3601848e-05  5.313925e-05   2.7247651e-06
     51000   9.948543e-07   4.8751294e-05  250            4.9745362e-05  4.7757226e-05  5.0228935e-07
     52000   8.4927909e-07  4.7939332e-05  250            4.9419951e-05  4.6458712e-05 -1.4021369e-06
     53000   6.8228403e-07  5.3438513e-05  250            5.5943866e-05  5.0933159e-05 -5.2007684e-07
     54000   5.9295247e-07  5.5459842e-05  250            5.3466784e-05  5.7452901e-05 -1.124999e-06 
     55000   5.7149095e-07  5.1977308e-05  250            5.2365248e-05  5.1589368e-05  7.1735283e-07
     56000   5.236063e-07   4.7153429e-05  250            4.9842408e-05  4.446445e-05  -6.1941441e-08
     57000   5.1416388e-07  4.0704565e-05  250            4.4177707e-05  3.7231423e-05 -5.0267899e-08
     58000   5.0881447e-07  3.8627942e-05  250            4.0974864e-05  3.628102e-05   3.4801606e-07
     59000   4.0794357e-07  4.3466443e-05  250            4.3311423e-05  4.3621463e-05 -1.1544685e-07
     60000   2.4059907e-07  5.6397154e-05  250            5.611294e-05   5.6681369e-05  2.0640116e-07
     61000   2.1129688e-07  5.8256227e-05  250            5.5013301e-05  6.1499153e-05  1.9075302e-06
     62000   1.8145766e-07  5.6378292e-05  250            5.5662838e-05  5.7093745e-05  2.3384704e-06
     63000   1.622536e-07   5.0741427e-05  250            5.2079282e-05  4.9403573e-05  1.775857e-06 
     64000   1.5142039e-07  4.26126e-05    250            4.5756408e-05  3.9468793e-05  1.5779102e-06
     65000   1.4620366e-07  3.8360012e-05  250            4.0857284e-05  3.5862741e-05  1.040391e-06 
     66000   1.3527061e-07  3.8338071e-05  250            4.0411302e-05  3.6264841e-05  1.1881084e-06
     67000   1.3555234e-07  4.1424707e-05  250            4.2047306e-05  4.0802107e-05  1.3533176e-06
     68000   1.3836717e-07  4.6484124e-05  250            4.5146058e-05  4.782219e-05   1.014213e-06 
     69000   1.3695796e-07  5.0942803e-05  250            4.8935941e-05  5.2949666e-05  7.366831e-07 
     70000   1.2114589e-07  5.3099659e-05  250            5.1778833e-05  5.4420485e-05  6.8254629e-07
     71000   1.0897686e-07  5.2678349e-05  250            5.1720365e-05  5.3636334e-05 -6.1808411e-07
     72000   7.5499857e-08  5.1984879e-05  250            5.1916422e-05  5.2053336e-05 -8.0586975e-07
     73000   5.9723637e-08  4.762144e-05   250            4.8505188e-05  4.6737692e-05 -1.4701651e-06
     74000   5.7254124e-08  4.3142453e-05  250            4.5994801e-05  4.0290104e-05 -1.6609064e-06
     75000   5.8149365e-08  4.0509614e-05  250            4.3363581e-05  3.7655648e-05 -1.6876554e-06
     76000   6.2853598e-08  4.0639722e-05  250            4.2764564e-05  3.8514879e-05 -1.5761734e-06
     77000   6.6162278e-08  4.3973599e-05  250            4.4935993e-05  4.3011204e-05 -1.4202992e-06
     78000   6.9709365e-08  4.8395171e-05  250            4.7823576e-05  4.8966766e-05 -1.1381598e-06
     79000   7.1503218e-08  5.1977605e-05  250            5.0610207e-05  5.3345004e-05 -4.9301438e-07
     80000   7.0951177e-08  5.3131081e-05  250            5.3075017e-05  5.3187146e-05 -3.3586961e-08
     81000   7.667241e-08   5.094485e-05   250            5.1687096e-05  5.0202605e-05 -2.0717099e-07
     82000   8.4284179e-08  4.7384152e-05  250            4.9105885e-05  4.5662419e-05  2.6510532e-07
     83000   4.9938313e-08  4.7566056e-05  250            5.0446535e-05  4.4685578e-05  4.5475629e-07
     84000   4.8930856e-08  4.5105129e-05  250            4.6280027e-05  4.3930231e-05  4.0897674e-07
     85000   5.2015083e-08  4.4372359e-05  250            4.6309482e-05  4.2435237e-05  1.4423213e-07
     86000   5.4761348e-08  4.4828228e-05  250            4.6704142e-05  4.2952314e-05  2.9762882e-07
     87000   2.7539341e-08  4.7771864e-05  250            4.8780009e-05  4.6763718e-05  1.2482388e-07
     88000   2.12491e-08    5.0022606e-05  250            4.9998336e-05  5.0046876e-05  7.9865606e-07
     89000   1.2950446e-08  5.1217315e-05  250            5.0470555e-05  5.1964076e-05  7.6251682e-07
     90000   1.0728897e-08  4.9807611e-05  250            5.0357405e-05  4.9257818e-05  6.8660676e-07
     91000   1.0151854e-08  4.7368987e-05  250            4.8857709e-05  4.5880265e-05  3.9564043e-07
     92000   9.2734018e-09  4.5214411e-05  250            4.7834696e-05  4.2594126e-05  7.5814835e-08
     93000   9.7459181e-09  4.4174798e-05  250            4.6740532e-05  4.1609065e-05 -8.0941514e-08
     94000   1.130396e-08   4.4854567e-05  250            4.6680769e-05  4.3028364e-05 -4.6968344e-07
     95000   8.8285014e-09  4.7365843e-05  250            4.7553486e-05  4.71782e-05   -6.9648135e-07
     96000   5.5295289e-09  4.9052816e-05  250            4.8598117e-05  4.9507516e-05 -5.8431372e-07
     97000   4.2828793e-09  4.9964478e-05  250            4.9625719e-05  5.0303237e-05  4.1251406e-08
     98000   4.5331287e-09  4.8908742e-05  250            4.9820846e-05  4.7996639e-05  3.9337109e-07
     99000   4.0924213e-09  4.7132475e-05  250            4.8771304e-05  4.5493646e-05  6.5115847e-07
    100000   2.7965447e-09  4.5830531e-05  250            4.8025278e-05  4.3635783e-05  7.7487551e-07
Loop time of 9.136 on 1 procs for 100000 steps with 442 atoms

Performance: 47285463.705 tau/day, 10945.709 timesteps/s, 4.838 Matom-step/s
99.8% CPU use with 1 MPI tasks x no OpenMP threads

MPI task timing breakdown:
Section |  min time  |  avg time  |  max time  |%varavg| %total
---------------------------------------------------------------
Pair    | 7.3582     | 7.3582     | 7.3582     |   0.0 | 80.54
Neigh   | 0.023301   | 0.023301   | 0.023301   |   0.0 |  0.26
Comm    | 0.19737    | 0.19737    | 0.19737    |   0.0 |  2.16
Output  | 0.00098485 | 0.00098485 | 0.00098485 |   0.0 |  0.01
Modify  | 1.4419     | 1.4419     | 1.4419     |   0.0 | 15.78
Other   |            | 0.1142     |            |       |  1.25

Nlocal:            442 ave         442 max         442 min
Histogram: 1 0 0 0 0 0 0 0 0 0
Nghost:             89 ave          89 max          89 min
Histogram: 1 0 0 0 0 0 0 0 0 0
Neighs:           1447 ave        1447 max        1447 min
Histogram: 1 0 0 0 0 0 0 0 0 0

Total # of neighbors = 1447
Ave neighs/atom = 3.2737557
Neighbor list builds = 359
Dangerous builds = 0

variable            wall_contact atom f_wall[1]>0
group               newwall variable wall_contact
18 atoms in group newwall
group               notwall subtract all newwall
424 atoms in group notwall

run                 0
Generated 0 of 0 mixed pair_coeff terms from geometric mixing rule
Per MPI rank memory allocation (min/avg/max) = 11.33 | 11.33 | 11.33 Mbytes
   Step         KinEng         Press          Volume          Pxx            Pyy            Pxy      
    100000   2.7965447e-09  4.5830486e-05  250            4.8025239e-05  4.3635733e-05  7.7486209e-07
Loop time of 4.99e-07 on 1 procs for 0 steps with 442 atoms

200.4% CPU use with 1 MPI tasks x no OpenMP threads

MPI task timing breakdown:
Section |  min time  |  avg time  |  max time  |%varavg| %total
---------------------------------------------------------------
Pair    | 0          | 0          | 0          |   0.0 |  0.00
Neigh   | 0          | 0          | 0          |   0.0 |  0.00
Comm    | 0          | 0          | 0          |   0.0 |  0.00
Output  | 0          | 0          | 0          |   0.0 |  0.00
Modify  | 0          | 0          | 0          |   0.0 |  0.00
Other   |            | 4.99e-07   |            |       |100.00

Nlocal:            442 ave         442 max         442 min
Histogram: 1 0 0 0 0 0 0 0 0 0
Nghost:             89 ave          89 max          89 min
Histogram: 1 0 0 0 0 0 0 0 0 0
Neighs:           1446 ave        1446 max        1446 min
Histogram: 1 0 0 0 0 0 0 0 0 0

Total # of neighbors = 1446
Ave neighs/atom = 3.2714932
Neighbor list builds = 0
Dangerous builds = 0

unfix               grav
unfix               integrator

fix                 integrator notwall nve/sphere
fix                 grav notwall gravity 1e-5 chute 20
fix                 wallc newwall freeze

compute             mybins notwall chunk/atom  bin/1d y center 0.5 units box
compute             ccont all continuum/chunk mybins 4.0 2.0 natoms velocity/x velocity/y
compute             cprop all property/chunk mybins count coord1
fix                 ave all ave/time 1000 100 100000 c_cprop[*] c_ccont[*] mode vector #file cg_fields.txt

run                 100000

CITE-CITE-CITE-CITE-CITE-CITE-CITE-CITE-CITE-CITE-CITE-CITE-CITE

Your simulation uses code contributions which should be cited:

- Coarse-graining procedure: doi:10.1007/s10035-010-0181-z

@Article{Goldhirsch2010,
 author = {Goldhirsch, Isaac},
 title = {{Stress, stress asymmetry and couple stress: From discrete particles to continuous fields}},
 journal = {Granular Matter},
 year =    2010,
 volume =  12,
 number =  3,
 pages =   {239--252}
}

CITE-CITE-CITE-CITE-CITE-CITE-CITE-CITE-CITE-CITE-CITE-CITE-CITE

Generated 0 of 0 mixed pair_coeff terms from geometric mixing rule
Per MPI rank memory allocation (min/avg/max) = 11.34 | 11.34 | 11.34 Mbytes
   Step         KinEng         Press          Volume          Pxx            Pyy            Pxy      
    100000   2.7965447e-09  4.5830626e-05  250            4.8025335e-05  4.3635917e-05  7.74902e-07  
    101000   7.4183659e-09  4.5109852e-05  250            4.7231852e-05  4.2987852e-05 -1.4306796e-06
    102000   2.1305748e-08  4.4607603e-05  250            4.6742278e-05  4.2472929e-05 -3.273883e-06 
    103000   3.9189041e-08  4.4619004e-05  250            4.6992964e-05  4.2245044e-05 -5.1010917e-06
    104000   5.9677934e-08  4.510116e-05   250            4.6998804e-05  4.3203517e-05 -6.3789536e-06
    105000   8.1242644e-08  4.6144483e-05  250            4.7885103e-05  4.4403863e-05 -8.2371101e-06
    106000   1.0224906e-07  4.7606612e-05  250            4.9219e-05     4.5994223e-05 -9.2327004e-06
    107000   1.2035735e-07  4.8442597e-05  250            4.958498e-05   4.7300213e-05 -1.0537916e-05
    108000   1.3619412e-07  4.8445351e-05  250            4.9430164e-05  4.7460538e-05 -1.1748997e-05
    109000   1.5647768e-07  4.6941673e-05  250            4.8110551e-05  4.5772796e-05 -1.1026081e-05
    110000   1.7579138e-07  4.4530467e-05  250            4.6588178e-05  4.2472756e-05 -1.0878549e-05
    111000   1.9176215e-07  4.2796834e-05  250            4.5268018e-05  4.0325649e-05 -1.0034775e-05
    112000   2.0701708e-07  4.3389303e-05  250            4.5786583e-05  4.0992023e-05 -1.1066923e-05
    113000   2.2482271e-07  4.6109206e-05  250            4.8248561e-05  4.396985e-05  -1.1908422e-05
    114000   2.4420595e-07  4.819201e-05   250            5.0328257e-05  4.6055764e-05 -1.1706399e-05
    115000   2.6330585e-07  4.9695199e-05  250            5.2251195e-05  4.7139203e-05 -1.2141837e-05
    116000   2.7879632e-07  5.0290293e-05  250            5.3153532e-05  4.7427055e-05 -1.3173377e-05
    117000   2.966794e-07   4.9324377e-05  250            5.2441793e-05  4.6206961e-05 -1.2690629e-05
    118000   3.1936845e-07  4.6593588e-05  250            5.0093824e-05  4.3093353e-05 -1.1019648e-05
    119000   3.6177642e-07  4.2336833e-05  250            4.5158793e-05  3.9514874e-05 -8.5544904e-06
    120000   4.0807835e-07  3.8770647e-05  250            4.1041679e-05  3.6499614e-05 -8.4215685e-06
    121000   4.5167087e-07  3.7931046e-05  250            3.879142e-05   3.7070672e-05 -8.9321611e-06
    122000   5.0375845e-07  3.8148479e-05  250            3.9698589e-05  3.6598369e-05 -8.8979757e-06
    123000   5.3516469e-07  4.3916133e-05  250            4.5163187e-05  4.2669079e-05 -1.0928282e-05
    124000   5.6024511e-07  5.1767336e-05  250            5.3526691e-05  5.000798e-05  -1.3023468e-05
    125000   5.6969161e-07  5.8740329e-05  250            6.0236845e-05  5.7243813e-05 -1.5316159e-05
    126000   5.6719481e-07  6.1177505e-05  250            6.3256947e-05  5.9098063e-05 -1.7172143e-05
    127000   5.9778707e-07  5.4746435e-05  250            5.6428196e-05  5.3064673e-05 -1.2965382e-05
    128000   6.4324348e-07  4.3790132e-05  250            4.4997917e-05  4.2582346e-05 -9.4654547e-06
    129000   6.8136859e-07  3.644812e-05   250            3.6763079e-05  3.6133162e-05 -8.8678855e-06
    130000   7.3510782e-07  3.1377947e-05  250            3.1518774e-05  3.1237121e-05 -7.7136911e-06
    131000   8.0866654e-07  2.8194937e-05  250            2.7378364e-05  2.9011511e-05 -5.3922682e-06
    132000   9.0778085e-07  2.9225549e-05  250            2.9687503e-05  2.8763595e-05 -5.873149e-06 
    133000   1.0269402e-06  3.0604468e-05  250            2.9339229e-05  3.1869706e-05 -5.604052e-06 
    134000   1.124174e-06   3.913311e-05   250            3.6428569e-05  4.1837651e-05 -8.27792e-06  
    135000   1.1672931e-06  5.280833e-05   250            5.1353264e-05  5.4263396e-05 -1.2543912e-05
    136000   1.1666104e-06  6.8020215e-05  250            6.8653979e-05  6.7386452e-05 -1.569136e-05 
    137000   1.1712077e-06  7.0858239e-05  250            7.2731178e-05  6.89853e-05   -1.7187245e-05
    138000   1.2207014e-06  6.2599627e-05  250            6.7590056e-05  5.7609199e-05 -1.384244e-05 
    139000   1.2402121e-06  5.2425867e-05  250            5.8031634e-05  4.68201e-05   -1.1156279e-05
    140000   1.2936426e-06  4.2930879e-05  250            4.9117324e-05  3.6744435e-05 -7.6785796e-06
    141000   1.3775633e-06  3.1959243e-05  250            3.8004515e-05  2.591397e-05  -5.7408039e-06
    142000   1.5008187e-06  2.3284614e-05  250            2.7246213e-05  1.9323014e-05 -3.7545171e-06
    143000   1.6384566e-06  2.4243128e-05  250            2.6292378e-05  2.2193878e-05 -4.6294803e-06
    144000   1.7854419e-06  3.1232348e-05  250            3.330999e-05   2.9154707e-05 -6.2197927e-06
    145000   1.9130824e-06  4.2406522e-05  250            4.4983797e-05  3.9829248e-05 -8.453184e-06 
    146000   1.9937561e-06  5.7136348e-05  250            5.7510139e-05  5.6762557e-05 -1.0940794e-05
    147000   2.0339782e-06  7.0452069e-05  250            6.9255077e-05  7.164906e-05  -1.2723323e-05
    148000   2.1078427e-06  6.7450029e-05  250            6.5793061e-05  6.9106996e-05 -1.1598014e-05
    149000   2.1582002e-06  6.3140264e-05  250            6.5684136e-05  6.0596392e-05 -1.0267744e-05
    150000   2.2365393e-06  5.4714671e-05  250            5.7473327e-05  5.1956016e-05 -9.89232e-06  
    151000   2.3132279e-06  4.5841461e-05  250            5.1204787e-05  4.0478135e-05 -6.4898923e-06
    152000   2.3998823e-06  4.2373325e-05  250            5.1253022e-05  3.3493629e-05 -8.6024789e-06
    153000   2.4885852e-06  4.2874167e-05  250            4.9145679e-05  3.6602654e-05 -8.4541252e-06
    154000   2.5692242e-06  4.573476e-05   250            5.2785346e-05  3.8684174e-05 -1.1058483e-05
    155000   2.6768884e-06  4.4121641e-05  250            5.0680946e-05  3.7562335e-05 -8.4627335e-06
    156000   2.7968559e-06  4.2654631e-05  250            4.8004349e-05  3.7304912e-05 -8.0217722e-06
    157000   2.9259341e-06  4.4941665e-05  250            4.9060755e-05  4.0822574e-05 -8.6976388e-06
    158000   3.0512932e-06  4.9505453e-05  250            5.219561e-05   4.6815296e-05 -8.5793828e-06
    159000   3.1745128e-06  5.396027e-05   250            5.7552137e-05  5.0368403e-05 -1.2854072e-05
    160000   3.2291738e-06  5.7746269e-05  250            6.0408773e-05  5.5083765e-05 -1.2854208e-05
    161000   3.307136e-06   5.3216211e-05  250            5.6030108e-05  5.0402314e-05 -8.1476008e-06
    162000   3.3881592e-06  5.0448464e-05  250            5.1821518e-05  4.907541e-05  -1.1713135e-05
    163000   3.4518808e-06  5.0990688e-05  250            5.4301233e-05  4.7680144e-05 -1.2833735e-05
    164000   3.5726881e-06  4.8133155e-05  250            5.2545637e-05  4.3720672e-05 -8.3290191e-06
    165000   3.668313e-06   4.5693837e-05  250            5.1181104e-05  4.020657e-05  -9.8091293e-06
    166000   3.8225177e-06  4.1780753e-05  250            5.0807019e-05  3.2754488e-05 -7.6322257e-06
    167000   3.9609725e-06  4.2586305e-05  250            4.9370414e-05  3.5802197e-05 -9.7514645e-06
    168000   4.0848218e-06  4.5578718e-05  250            5.2348978e-05  3.8808458e-05 -1.1819193e-05
    169000   4.1831119e-06  5.3402465e-05  250            5.8483559e-05  4.8321372e-05 -9.2441682e-06
    170000   4.2862599e-06  5.4895545e-05  250            6.138035e-05   4.8410741e-05 -1.3412825e-05
    171000   4.3678935e-06  5.5171151e-05  250            6.2678432e-05  4.766387e-05  -1.0786233e-05
    172000   4.5156567e-06  5.1398523e-05  250            5.8272513e-05  4.4524534e-05 -7.7350019e-06
    173000   4.6673884e-06  4.8406321e-05  250            5.3737554e-05  4.3075088e-05 -7.1949977e-06
    174000   4.8558561e-06  4.5328392e-05  250            5.1246409e-05  3.9410376e-05 -6.7959526e-06
    175000   4.9571596e-06  5.1713349e-05  250            5.6494262e-05  4.6932436e-05 -1.1524467e-05
    176000   5.0365008e-06  6.2623822e-05  250            7.0662107e-05  5.4585537e-05 -1.3928198e-05
    177000   5.1614885e-06  6.0206887e-05  250            6.6376855e-05  5.4036919e-05 -1.1797116e-05
    178000   5.2266699e-06  6.1206716e-05  250            7.0873513e-05  5.1539919e-05 -1.2504621e-05
    179000   5.3678111e-06  5.3294782e-05  250            6.3401231e-05  4.3188334e-05 -6.1808592e-06
    180000   5.4478503e-06  5.3242258e-05  250            6.4265796e-05  4.221872e-05  -1.1281405e-05
    181000   5.4628765e-06  6.1741954e-05  250            7.6925945e-05  4.6557963e-05 -1.6993297e-05
    182000   5.4158685e-06  7.3775235e-05  250            8.5039896e-05  6.2510573e-05 -1.8738799e-05
    183000   5.4533474e-06  6.4017648e-05  250            7.2031985e-05  5.600331e-05  -1.2509142e-05
    184000   5.5542515e-06  4.9115122e-05  250            5.9580774e-05  3.8649471e-05 -6.4707685e-06
    185000   5.7133281e-06  3.7830682e-05  250            4.7510339e-05  2.8151026e-05 -3.1513581e-06
    186000   5.9006318e-06  3.5708975e-05  250            4.5583959e-05  2.5833992e-05 -6.2348088e-06
    187000   6.084971e-06   3.7237552e-05  250            4.6625031e-05  2.7850073e-05 -8.6154705e-06
    188000   6.2637317e-06  4.2902609e-05  250            5.3374665e-05  3.2430554e-05 -9.9796436e-06
    189000   6.4702219e-06  4.4332939e-05  250            5.4751679e-05  3.3914198e-05 -1.1022511e-05
    190000   6.6909086e-06  4.4663368e-05  250            5.8555715e-05  3.0771021e-05 -9.4941755e-06
    191000   6.8718183e-06  5.3158665e-05  250            6.5839688e-05  4.0477643e-05 -9.8725183e-06
    192000   7.0245955e-06  6.2837847e-05  250            7.8223628e-05  4.7452065e-05 -1.6153478e-05
    193000   6.9972404e-06  8.1563553e-05  250            9.2352027e-05  7.0775079e-05 -2.0608523e-05
    194000   6.9438495e-06  8.7827775e-05  250            0.00010130451  7.4351044e-05 -1.4442422e-05
    195000   6.91311e-06    8.4956417e-05  250            9.4412418e-05  7.5500416e-05 -1.7612972e-05
    196000   6.9328999e-06  7.6641084e-05  250            8.677977e-05   6.6502398e-05 -1.6781146e-05
    197000   7.0073054e-06  6.3276603e-05  250            7.6294679e-05  5.0258527e-05 -1.0795056e-05
    198000   7.0515446e-06  5.6541347e-05  250            7.0344534e-05  4.273816e-05  -1.0288977e-05
    199000   7.1486532e-06  4.5938606e-05  250            6.0837412e-05  3.10398e-05   -7.3077062e-06
    200000   7.2602077e-06  4.4180814e-05  250            5.7147234e-05  3.1214394e-05 -7.460603e-06 
Loop time of 11.3783 on 1 procs for 100000 steps with 442 atoms

Performance: 37966870.015 tau/day, 8788.627 timesteps/s, 3.885 Matom-step/s
99.8% CPU use with 1 MPI tasks x no OpenMP threads

MPI task timing breakdown:
Section |  min time  |  avg time  |  max time  |%varavg| %total
---------------------------------------------------------------
Pair    | 9.4492     | 9.4492     | 9.4492     |   0.0 | 83.05
Neigh   | 0.012347   | 0.012347   | 0.012347   |   0.0 |  0.11
Comm    | 0.20975    | 0.20975    | 0.20975    |   0.0 |  1.84
Output  | 0.00096358 | 0.00096358 | 0.00096358 |   0.0 |  0.01
Modify  | 1.5887     | 1.5887     | 1.5887     |   0.0 | 13.96
Other   |            | 0.1174     |            |       |  1.03

Nlocal:            442 ave         442 max         442 min
Histogram: 1 0 0 0 0 0 0 0 0 0
Nghost:             90 ave          90 max          90 min
Histogram: 1 0 0 0 0 0 0 0 0 0
Neighs:           1423 ave        1423 max        1423 min
Histogram: 1 0 0 0 0 0 0 0 0 0

Total # of neighbors = 1423
Ave neighs/atom = 3.219457
Neighbor list builds = 175
Dangerous builds = 0
Total wall time: 0:00:20
