log log.water-class2b
units real
atom_style full
pair_style lj/class2b/coul/cut 15.0
bond_style class2b
angle_style class2b

read_data water-class2b.data

thermo_style multi
minimize 0.0 0.0 100 1000

write_data water-class2b.data2
