pair_style coul/debye 2.5
pair_coeff 1 1 2.5
variable coeff delete
variable coeff index ""
