pair_style coul/long 2.5
pair_coeff 1 1
kspace_style ewald 0.01
variable coeff delete
variable coeff index ""
