pair_style coul/cut 2.5
pair_coeff 1 1
variable coeff delete
variable coeff index ""
