pair_style coul/diel 2.5
pair_coeff 1 1 78. 1.375 0.112
variable coeff delete
variable coeff index ""
