pair_style gauss 2.5
pair_coeff 1 1 0.1 2.5
