pair_style gauss/cut 2.5
pair_coeff 1 1 0.1 2.5 0.15
variable coeff delete
variable coeff index ""
