pair_style lj/cut/coul/long 2.5 5.0
pair_coeff 1 1 1.0 1.0
kspace_style ewald 0.001
variable coeff delete
variable coeff index ""
