pair_style lj/sdk 2.5
pair_coeff 1 1 lj12_6 1.0 1.0
