pair_style tersoff/table
pair_coeff * * ../../potentials/SiC.tersoff C
variable coeff delete
variable coeff index ""
