pair_style tersoff/table
pair_coeff * * ../potential/SiC.tersoff C
