pair_style tersoff
pair_coeff * * ../../potentials/SiC.tersoff C
variable coeff delete
variable coeff index ""
