pair_style tersoff
pair_coeff * * ../potential/SiC.tersoff C
