pair_style hybrid/overlay zero 9.0 eam/fs
pair_coeff * * zero
pair_coeff * * eam/fs dir.inputs/Zr_2.eam.fs Zr