atom_style full
units real
kspace_style  pppm/electrode 1.0e-8
kspace_modify gewald 0.231
kspace_modify mesh 8 8 16
kspace_modify order 5

boundary p p f
kspace_modify   slab 3.0
pair_style 	lj/cut/coul/long 12 12 
processors * * 1


read_data "charged.data"

group ele type 1 2
group bot type 1
group top type 2
pair_coeff * * 0.0 0.0
