pair_style lj/cut 2.5
pair_coeff 1 1 1.0 1.0
pair_modify shift yes
