pair_style lj/cut/coul/cut 2.5 1.9
pair_coeff 1 1 1.0 1.0 1.9
