pair_style lj/cut/coul/cut 1.9 2.5
pair_coeff 1 1 1.0 1.0 4.0
