pair_style hybrid/overlay lj/cut 2.5 coul/cut 2.5
pair_coeff 1 1 lj/cut 1.0 1.0
pair_coeff 1 1 coul/cut
