pair_style hybrid/overlay lj/cut 2.5 coul/cut 1.9
pair_coeff 1 1 lj/cut 1.0 1.0 1.9
pair_coeff 1 1 coul/cut 1.9
