pair_style lj/cut 1.9
pair_coeff 1 1 1.0 1.0 4.0
