LAMMPS (4 Jul 2026 - Development - patch_4Jul2026-848-gd03be1b44b)
  using 1 OpenMP thread(s) per MPI task
units           si
atom_style      ellipsoid superellipsoid
dimension       3
boundary p p p
comm_modify vel yes
newton off
# create big ellipsoidal particles

region          box block 0 10 0 10 0 10
create_box      2 box
Created orthogonal box = (0 0 0) to (10 10 10)
  1 by 2 by 2 MPI processor grid
create_atoms 1 single 5 5 4.5
Created 1 atoms
  using lattice units in orthogonal box = (0 0 0) to (10 10 10)
  create_atoms CPU = 0.000 seconds
create_atoms 1 single 5 5 6
Created 1 atoms
  using lattice units in orthogonal box = (0 0 0) to (10 10 10)
  create_atoms CPU = 0.000 seconds
group bot id 1
1 atoms in group bot
group top id 2
1 atoms in group top
#create_atoms    1 region box

set             type 1 mass 1.0
Setting atom values ...
  2 settings made for mass
set             type 1 shape 2.0 1.0 1.0
Setting atom values ...
  2 settings made for shape
set             type 1 block 2.0 2.0
Setting atom values ...
  2 settings made for block

pair_style      granular/superellipsoid
pair_coeff      * * hooke 1000.0 0.0 tangential linear_history 285 0.0 0.5 damping mass_velocity
# Hertz model instead
# pair_coeff      * * hertz 1000.0 0.0 tangential linear_history 285.714 0.0 0.5 damping viscoelastic

compute diameter all property/atom shapex shapey shapez
compute orient all property/atom quatw quati quatj quatk
compute block all property/atom block1 block2
# Ovito uses the reciprocal exponents for the blockiness
# https://docs.ovito.org/advanced_topics/aspherical_particles.html#howto-aspherical-particles-superquadrics
# Define atom variables from block
variable phi atom "2/c_block[2]"
variable theta atom "2/c_block[1]"

# dump mydump all custom 10 dump.lammpstrj id x y z fx fy fz tqx tqy tqz c_diameter[*] c_orient[*] v_phi v_theta
# # Ovito maps c_orient[*] on its XYZW axes, which is not correct. Map components explicitly
# dump_modify mydump colname c_orient[1] quatw colname c_orient[2] quati colname c_orient[3] quatj colname c_orient[4] quatk

fix 1 bot freeze
fix 2 top gravity 9.81 vector 0 0 -1
fix 3 all nve/asphere

thermo 10
timestep 0.001
run             3000
Generated 0 of 1 mixed pair_coeff terms from geometric mixing rule
Neighbor list info ...
  update: every = 1 steps, delay = 0 steps, check = yes
  max neighbors/atom: 2000, page size: 100000
  master list distance cutoff = 2.001
  ghost atom cutoff = 2.001
  binsize = 1.0005, bins = 10 10 10
  1 neighbor lists, perpetual/occasional/extra = 1 0 0
  (1) pair granular/superellipsoid, perpetual
      attributes: half, newton off, size, history
      pair build: half/size/bin/atomonly/newtoff
      stencil: full/bin/3d
      bin: standard
Per MPI rank memory allocation (min/avg/max) = 18.16 | 18.16 | 18.16 Mbytes
   Step          Temp          E_pair         E_mol          TotEng         Press     
         0   0              0              0              0              0            
        10   2.3234484e+20  0              0              0.004811805    3.20787e-06  
        20   9.2937937e+20  0              0              0.01924722     1.283148e-05 
        30   2.0911036e+21  0              0              0.043306245    2.887083e-05 
        40   3.7175175e+21  0              0              0.07698888     5.132592e-05 
        50   5.8086211e+21  0              0              0.12029512     8.019675e-05 
        60   8.3644143e+21  0              0              0.17322498     0.00011548332
        70   1.1384897e+22  0              0              0.23577845     0.00015718563
        80   1.487007e+22   0              0              0.30795552     0.00020530368
        90   1.8819932e+22  0              0              0.38975621     0.00025983747
       100   2.3234484e+22  0              0              0.4811805      0.000320787  
       110   2.8113726e+22  0              0              0.58222841     0.00038815227
       120   3.3457657e+22  0              0              0.69289992     0.00046193328
       130   3.9266278e+22  0              0              0.81319505     0.00054213003
       140   4.5539589e+22  0              0              0.94311378     0.00062874252
       150   5.227759e+22   0              0              1.0826561      0.00072177075
       160   5.948028e+22   0              0              1.2318221      0.00082121472
       170   6.714766e+22   0              0              1.3906116      0.00092707443
       180   7.5279729e+22  0              0              1.5590248      0.0010393499 
       190   8.3876488e+22  0              0              1.7370616      0.0011580411 
       200   9.2937937e+22  0              0              1.924722       0.001283148  
       210   1.0246408e+23  0              0              2.122006       0.0014146707 
       220   1.124549e+23   0              0              2.3289136      0.0015526091 
       230   1.2291042e+23  0              0              2.5454448      0.0016969632 
       240   1.3383063e+23  0              0              2.7715997      0.0018477331 
       250   1.4521553e+23  0              0              3.0073781      0.0020049187 
       260   1.5706511e+23  0              0              3.2527802      0.0021685201 
       270   1.6937939e+23  0              0              3.5078058      0.0023385372 
       280   1.8215836e+23  0              0              3.7724551      0.0025149701 
       290   1.9540201e+23  0              0              4.046728       0.0026978187 
       300   2.0911036e+23  0              0              4.3306245      0.002887083  
       310   2.2328339e+23  0              0              4.6241446      0.0030827631 
       320   2.3774895e+23  0              0              4.9237228      0.0040380946 
       330   2.2556155e+23  0              0              4.6713247      0.013910264  
       340   1.7236495e+23  0              0              3.5696362      0.021881737  
       350   9.8739568e+22  0              0              2.0448724      0.027584578  
       360   3.3169161e+22  0              0              0.68692524     0.031038157  
       370   1.0212433e+21  0              0              0.021149699    0.032420925  
       380   1.4733018e+22  0              0              0.30511721     0.031851162  
       390   6.8999752e+22  0              0              1.428968       0.029276435  
       400   1.4282704e+23  0              0              2.9579131      0.024520939  
       410   2.0765299e+23  0              0              4.3004428      0.017469745  
       420   2.3839812e+23  0              0              4.9371669      0.0083071195 
       430   2.2926262e+23  0              0              4.747973       0.0031653153 
       440   2.1489798e+23  0              0              4.4504848      0.0029669899 
       450   2.0099803e+23  0              0              4.1626202      0.0027750802 
       460   1.8756277e+23  0              0              3.8843793      0.0025895862 
       470   1.745922e+23   0              0              3.6157619      0.002410508  
       480   1.6208632e+23  0              0              3.3567682      0.0022378455 
       490   1.5004513e+23  0              0              3.1073981      0.0020715987 
       500   1.3846863e+23  0              0              2.8676515      0.0019117677 
       510   1.2735682e+23  0              0              2.6375286      0.0017583524 
       520   1.167097e+23   0              0              2.4170293      0.0016113529 
       530   1.0652726e+23  0              0              2.2061536      0.0014707691 
       540   9.6809521e+22  0              0              2.0049016      0.001336601  
       550   8.7556468e+22  0              0              1.8132731      0.0012088487 
       560   7.8768105e+22  0              0              1.6312682      0.0010875122 
       570   7.0444432e+22  0              0              1.458887       0.00097259133
       580   6.2585448e+22  0              0              1.2961293      0.00086408623
       590   5.5191153e+22  0              0              1.1429953      0.00076199688
       600   4.8261549e+22  0              0              0.9994849      0.00066632327
       610   4.1796634e+22  0              0              0.86559809     0.00057706539
       620   3.5796409e+22  0              0              0.74133489     0.00049422326
       630   3.0260873e+22  0              0              0.6266953      0.00041779687
       640   2.5190027e+22  0              0              0.52167932     0.00034778621
       650   2.0583871e+22  0              0              0.42628695     0.0002841913 
       660   1.6442405e+22  0              0              0.34051819     0.00022701213
       670   1.2765628e+22  0              0              0.26437304     0.00017624869
       680   9.5535409e+21  0              0              0.1978515      0.000131901  
       690   6.8061435e+21  0              0              0.14095357     9.3969047e-05
       700   4.5234358e+21  0              0              0.093679251    6.2452834e-05
       710   2.7054178e+21  0              0              0.056028542    3.7352361e-05
       720   1.3520894e+21  0              0              0.028001442    1.8667628e-05
       730   4.6345076e+20  0              0              0.0095979521   6.3986347e-06
       740   3.9501783e+19  0              0              0.00081807229  5.4538153e-07
       750   8.0242496e+19  0              0              0.0016618025   1.1078683e-06
       760   5.856729e+20   0              0              0.012129143    8.0860952e-06
       770   1.555793e+21   0              0              0.032220093    2.1480062e-05
       780   2.9906027e+21  0              0              0.061934653    4.1289769e-05
       790   4.8901022e+21  0              0              0.10127282     6.7515216e-05
       800   7.2542913e+21  0              0              0.1502346      0.0001001564 
       810   1.008317e+22   0              0              0.20881999     0.00013921333
       820   1.3376739e+22  0              0              0.27702899     0.000184686  
       830   1.7134997e+22  0              0              0.3548616      0.0002365744 
       840   2.1357945e+22  0              0              0.44231782     0.00029487855
       850   2.6045582e+22  0              0              0.53939765     0.00035959844
       860   3.119791e+22   0              0              0.6461011      0.00043073406
       870   3.6814927e+22  0              0              0.76242815     0.00050828543
       880   4.2896633e+22  0              0              0.88837881     0.00059225254
       890   4.9443029e+22  0              0              1.0239531      0.00068263538
       900   5.6454115e+22  0              0              1.169151       0.00077943397
       910   6.3929891e+22  0              0              1.3239724      0.0008826483 
       920   7.1870356e+22  0              0              1.4884175      0.00099227836
       930   8.0275512e+22  0              0              1.6624863      0.0011083242 
       940   8.9145356e+22  0              0              1.8461786      0.0012307857 
       950   9.8479891e+22  0              0              2.0394945      0.001359663  
       960   1.0827911e+23  0              0              2.242434       0.001494956  
       970   1.1854303e+23  0              0              2.4549972      0.0016366648 
       980   1.2927163e+23  0              0              2.677184       0.0017847893 
       990   1.4046493e+23  0              0              2.9089943      0.0019393296 
      1000   1.5212291e+23  0              0              3.1504283      0.0021002855 
      1010   1.6424558e+23  0              0              3.4014859      0.0022676573 
      1020   1.7683294e+23  0              0              3.6621671      0.0024414447 
      1030   1.8988499e+23  0              0              3.9324719      0.0026216479 
      1040   2.0340174e+23  0              0              4.2124003      0.0028082669 
      1050   2.1738317e+23  0              0              4.5019524      0.0030013016 
      1060   2.3182929e+23  0              0              4.801128       0.003200752  
      1070   2.3618863e+23  0              0              4.8914089      0.010043337  
      1080   1.9814341e+23  0              0              4.1035018      0.018868342  
      1090   1.2969103e+23  0              0              2.6858695      0.025518651  
      1100   5.7313934e+22  0              0              1.1869576      0.029878568  
      1110   9.0129812e+21  0              0              0.18665664     0.032090735  
      1120   3.4745653e+21  0              0              0.071957399    0.032319514  
      1130   4.2841358e+22  0              0              0.88723406     0.030586217  
      1140   1.1188336e+23  0              0              2.317077       0.026749974  
      1150   1.8388998e+23  0              0              3.8083167      0.020642705  
      1160   2.3100372e+23  0              0              4.7840307      0.012298009  
      1170   2.3525321e+23  0              0              4.8720366      0.0032480244 
      1180   2.2069909e+23  0              0              4.5706243      0.0030470829 
      1190   2.0660966e+23  0              0              4.2788357      0.0028525571 
      1200   1.9298492e+23  0              0              3.9966707      0.0026644471 
      1210   1.7982488e+23  0              0              3.7241293      0.0024827529 
      1220   1.6712952e+23  0              0              3.4612115      0.0023074743 
      1230   1.5489885e+23  0              0              3.2079173      0.0021386116 
      1240   1.4313287e+23  0              0              2.9642468      0.0019761645 
      1250   1.3183158e+23  0              0              2.7301998      0.0018201332 
      1260   1.2099498e+23  0              0              2.5057765      0.0016705176 
      1270   1.1062307e+23  0              0              2.2909767      0.0015273178 
      1280   1.0071585e+23  0              0              2.0858006      0.0013905337 
      1290   9.1273314e+22  0              0              1.8902481      0.0012601654 
      1300   8.2295473e+22  0              0              1.7043192      0.0011362128 
      1310   7.3782321e+22  0              0              1.5280139      0.0010186759 
      1320   6.5733858e+22  0              0              1.3613322      0.00090755478
      1330   5.8150086e+22  0              0              1.2042741      0.00080284939
      1340   5.1031003e+22  0              0              1.0568396      0.00070455974
      1350   4.437661e+22   0              0              0.91902876     0.00061268584
      1360   3.8186906e+22  0              0              0.79084151     0.00052722767
      1370   3.2461892e+22  0              0              0.67227787     0.00044818524
      1380   2.7201568e+22  0              0              0.56333784     0.00037555856
      1390   2.2405934e+22  0              0              0.46402142     0.00030934761
      1400   1.8074989e+22  0              0              0.37432861     0.0002495524 
      1410   1.4208734e+22  0              0              0.29425941     0.00019617294
      1420   1.0807168e+22  0              0              0.22381382     0.00014920921
      1430   7.8702924e+21  0              0              0.16299184     0.00010866122
      1440   5.3981063e+21  0              0              0.11179347     7.4528977e-05
      1450   3.39061e+21    0              0              0.070218705    4.681247e-05 
      1460   1.8478033e+21  0              0              0.038267555    2.5511703e-05
      1470   7.6968628e+20  0              0              0.015940015    1.0626677e-05
      1480   1.5625896e+20  0              0              0.0032360849   2.15739e-06  
      1490   7.5213262e+18  0              0              0.00015576483  1.0384322e-07
      1500   3.2347338e+20  0              0              0.0066990547   4.4660365e-06
      1510   1.1041151e+21  0              0              0.022865955    1.524397e-05 
      1520   2.3494465e+21  0              0              0.048656465    3.2437643e-05
      1530   4.0594676e+21  0              0              0.084070584    5.6047056e-05
      1540   6.2341784e+21  0              0              0.12910831     8.607221e-05 
      1550   8.8735789e+21  0              0              0.18376965     0.0001225131 
      1560   1.1977669e+22  0              0              0.2480546      0.00016536974
      1570   1.5546449e+22  0              0              0.32196316     0.00021464211
      1580   1.9579918e+22  0              0              0.40549533     0.00027033022
      1590   2.4078078e+22  0              0              0.49865111     0.00033243408
      1600   2.9040927e+22  0              0              0.6014305      0.00040095367
      1610   3.4468465e+22  0              0              0.7138335      0.000475889  
      1620   4.0360693e+22  0              0              0.83586011     0.00055724008
      1630   4.6717611e+22  0              0              0.96751033     0.00064500689
      1640   5.3539219e+22  0              0              1.1087842      0.00073918944
      1650   6.0825516e+22  0              0              1.2596816      0.00083978774
      1660   6.8576503e+22  0              0              1.4202027      0.00094680177
      1670   7.679218e+22   0              0              1.5903473      0.0010602315 
      1680   8.5472547e+22  0              0              1.7701156      0.0011800771 
      1690   9.4617603e+22  0              0              1.9595075      0.0013063383 
      1700   1.0422735e+23  0              0              2.158523       0.0014390153 
      1710   1.1430178e+23  0              0              2.3671621      0.001578108  
      1720   1.2484091e+23  0              0              2.5854248      0.0017236165 
      1730   1.3584472e+23  0              0              2.8133111      0.0018755407 
      1740   1.4731323e+23  0              0              3.050821       0.0020338807 
      1750   1.5924642e+23  0              0              3.2979546      0.0021986364 
      1760   1.7164431e+23  0              0              3.5547117      0.0023698078 
      1770   1.8450688e+23  0              0              3.8210925      0.002547395  
      1780   1.9783414e+23  0              0              4.0970968      0.0027313979 
      1790   2.116261e+23   0              0              4.3827248      0.0029218165 
      1800   2.2588274e+23  0              0              4.6779764      0.0031186509 
      1810   2.3896837e+23  0              0              4.9489766      0.0059682329 
      1820   2.1833039e+23  0              0              4.5215691      0.015538873  
      1830   1.5946546e+23  0              0              3.3024908      0.023104432  
      1840   8.5146904e+22  0              0              1.7633716      0.028382269  
      1850   2.4126665e+22  0              0              0.49965734     0.031439414  
      1860   1.1907745e+19  0              0              0.00024660648  0.03245748   
      1870   2.2132014e+22  0              0              0.4583486      0.031527096  
      1880   8.1929281e+22  0              0              1.6967354      0.028564786  
      1890   1.5626968e+23  0              0              3.236307       0.023389246  
      1900   2.1639282e+23  0              0              4.4814425      0.015923127  
      1910   2.390386e+23   0              0              4.9504311      0.0064292133 
      1920   2.2647688e+23  0              0              4.6902809      0.0031268539 
      1930   2.1220119e+23  0              0              4.3946349      0.0029297566 
      1940   1.983902e+23   0              0              4.1086126      0.0027390751 
      1950   1.8504389e+23  0              0              3.8322139      0.0025548092 
      1960   1.7216228e+23  0              0              3.5654387      0.0023769592 
      1970   1.5974535e+23  0              0              3.3082872      0.0022055248 
      1980   1.4779311e+23  0              0              3.0607593      0.0020405062 
      1990   1.3630557e+23  0              0              2.822855       0.0018819033 
      2000   1.2528271e+23  0              0              2.5945743      0.0017297162 
      2010   1.1472454e+23  0              0              2.3759172      0.0015839448 
      2020   1.0463106e+23  0              0              2.1668838      0.0014445892 
      2030   9.5002273e+22  0              0              1.9674739      0.0013116493 
      2040   8.5838174e+22  0              0              1.7776876      0.0011851251 
      2050   7.7138765e+22  0              0              1.597525       0.0010650167 
      2060   6.8904046e+22  0              0              1.426986       0.00095132399
      2070   6.1134016e+22  0              0              1.2660706      0.00084404704
      2080   5.3828676e+22  0              0              1.1147787      0.00074318583
      2090   4.6988026e+22  0              0              0.97311055     0.00064874037
      2100   4.0612065e+22  0              0              0.84106596     0.00056071064
      2110   3.4700794e+22  0              0              0.71864498     0.00047909665
      2120   2.9254213e+22  0              0              0.60584761     0.00040389841
      2130   2.4272321e+22  0              0              0.50267385     0.0003351159 
      2140   1.9755119e+22  0              0              0.4091237      0.00027274913
      2150   1.5702607e+22  0              0              0.32519716     0.00021679811
      2160   1.2114784e+22  0              0              0.25089423     0.00016726282
      2170   8.9916516e+21  0              0              0.18621491     0.00012414327
      2180   6.3332084e+21  0              0              0.1311592      8.7439467e-05
      2190   4.1394549e+21  0              0              0.0857271      5.71514e-05  
      2200   2.410391e+21   0              0              0.04991861     3.3279074e-05
      2210   1.1460169e+21  0              0              0.02373373     1.5822487e-05
      2220   3.4633245e+20  0              0              0.0071724605   4.7816403e-06
      2230   1.1337681e+19  0              0              0.00023480061  1.5653374e-07
      2240   1.410326e+20   0              0              0.0029207507   1.9471671e-06
      2250   7.354172e+20   0              0              0.015230311    1.0153541e-05
      2260   1.7944915e+21  0              0              0.037163481    2.4775654e-05
      2270   3.3182555e+21  0              0              0.068720261    4.5813507e-05
      2280   5.3067091e+21  0              0              0.10990065     7.3267101e-05
      2290   7.7598525e+21  0              0              0.16070465     0.00010713643
      2300   1.0677685e+22  0              0              0.22113226     0.00014742151
      2310   1.4060208e+22  0              0              0.29118348     0.00019412232
      2320   1.7907421e+22  0              0              0.37085831     0.00024723887
      2330   2.2219323e+22  0              0              0.46015675     0.00030677117
      2340   2.6995914e+22  0              0              0.5590788      0.0003727192 
      2350   3.2237196e+22  0              0              0.66762446     0.00044508297
      2360   3.7943167e+22  0              0              0.78579373     0.00052386249
      2370   4.4113828e+22  0              0              0.91358661     0.00060905774
      2380   5.0749178e+22  0              0              1.0510031      0.00070066873
      2390   5.7849219e+22  0              0              1.1980432      0.00079869547
      2400   6.5413948e+22  0              0              1.3547069      0.00090313794
      2410   7.3443368e+22  0              0              1.5209942      0.0010139962 
      2420   8.1937477e+22  0              0              1.6969052      0.0011312701 
      2430   9.0896276e+22  0              0              1.8824397      0.0012549598 
      2440   1.0031976e+23  0              0              2.0775979      0.0013850652 
      2450   1.1020794e+23  0              0              2.2823796      0.0015215864 
      2460   1.2056081e+23  0              0              2.496785       0.0016645233 
      2470   1.3137837e+23  0              0              2.720814       0.001813876  
      2480   1.4266062e+23  0              0              2.9544666      0.0019696444 
      2490   1.5440755e+23  0              0              3.1977428      0.0021318285 
      2500   1.6661918e+23  0              0              3.4506426      0.0023004284 
      2510   1.792955e+23   0              0              3.713166       0.002475444  
      2520   1.924365e+23   0              0              3.985313       0.0026568753 
      2530   2.060422e+23   0              0              4.2670837      0.0028447224 
      2540   2.2011258e+23  0              0              4.5584779      0.0030389853 
      2550   2.3464766e+23  0              0              4.8594958      0.0032396638 
      2560   2.318932e+23   0              0              4.8024517      0.011944371  
      2570   1.861729e+23   0              0              3.8555954      0.020365498  
      2580   1.1465628e+23  0              0              2.3745035      0.026558138  
      2590   4.5011273e+22  0              0              0.93217247     0.03047633   
      2600   4.1817546e+21  0              0              0.086603118    0.032284819  
      2610   7.9636163e+21  0              0              0.16492455     0.032128639  
      2620   5.4893752e+22  0              0              1.1368362      0.029993233  
      2630   1.268161e+23   0              0              2.6263304      0.025717518  
      2640   1.9590574e+23  0              0              4.0571601      0.019154114  
      2650   2.3543367e+23  0              0              4.8757739      0.010405036  
      2660   2.3222286e+23  0              0              4.8092787      0.0032061858 
      2670   2.1776428e+23  0              0              4.5098451      0.0030065634 
      2680   2.037704e+23   0              0              4.2200352      0.0028133568 
      2690   1.902412e+23   0              0              3.9398488      0.0026265659 
      2700   1.7717669e+23  0              0              3.6692861      0.0024461907 
      2710   1.6457688e+23  0              0              3.408347       0.0022722313 
      2720   1.5244175e+23  0              0              3.1570315      0.0021046876 
      2730   1.4077131e+23  0              0              2.9153396      0.0019435597 
      2740   1.2956557e+23  0              0              2.6832713      0.0017888475 
      2750   1.1882451e+23  0              0              2.4608266      0.0016405511 
      2760   1.0854814e+23  0              0              2.2480055      0.0014986703 
      2770   9.8736462e+22  0              0              2.044808       0.0013632054 
      2780   8.9389473e+22  0              0              1.8512342      0.0012341561 
      2790   8.0507174e+22  0              0              1.6672839      0.0011115226 
      2800   7.2089565e+22  0              0              1.4929573      0.00099530487
      2810   6.4136645e+22  0              0              1.3282543      0.00088550285
      2820   5.6648415e+22  0              0              1.1731749      0.00078211657
      2830   4.9624875e+22  0              0              1.0277191      0.00068514604
      2840   4.3066025e+22  0              0              0.89188686     0.00059459124
      2850   3.6971864e+22  0              0              0.76567828     0.00051045218
      2860   3.1342392e+22  0              0              0.6490933      0.00043272887
      2870   2.6177611e+22  0              0              0.54213193     0.00036142129
      2880   2.1477519e+22  0              0              0.44479418     0.00029652945
      2890   1.7242117e+22  0              0              0.35708003     0.00023805336
      2900   1.3471404e+22  0              0              0.2789895      0.000185993  
      2910   1.0165382e+22  0              0              0.21052257     0.00014034838
      2920   7.3240486e+21  0              0              0.15167926     0.00010111951
      2930   4.9474052e+21  0              0              0.10245955     6.830637e-05 
      2940   3.0354515e+21  0              0              0.062863459    4.1908973e-05
      2950   1.5881874e+21  0              0              0.032890974    2.1927316e-05
      2960   6.0561309e+20  0              0              0.012542099    8.3613996e-06
      2970   8.7728427e+19  0              0              0.0018168343   1.2112229e-06
      2980   3.4533447e+19  0              0              0.00071517926  4.7678617e-07
      2990   4.4602815e+20  0              0              0.0092371342   6.1580895e-06
      3000   1.3222125e+21  0              0              0.027382699    1.8255133e-05
Loop time of 0.0196703 on 4 procs for 3000 steps with 2 atoms

94.9% CPU use with 4 MPI tasks x 1 OpenMP threads

MPI task timing breakdown:
Section |  min time  |  avg time  |  max time  |%varavg| %total
---------------------------------------------------------------
Pair    | 0.000292   | 0.00048274 | 0.00074222 |   0.0 |  2.45
Neigh   | 0.0012543  | 0.0015183  | 0.0020328  |   0.8 |  7.72
Comm    | 0.009908   | 0.011495   | 0.012606   |   1.0 | 58.44
Output  | 0.0010213  | 0.0012159  | 0.0016048  |   0.7 |  6.18
Modify  | 0.00039191 | 0.00068643 | 0.0010382  |   0.0 |  3.49
Other   |            | 0.004272   |            |       | 21.72

Nlocal:            0.5 ave           1 max           0 min
Histogram: 2 0 0 0 0 0 0 0 0 2
Nghost:            1.5 ave           2 max           1 min
Histogram: 2 0 0 0 0 0 0 0 0 2
Neighs:            0.5 ave           1 max           0 min
Histogram: 2 0 0 0 0 0 0 0 0 2

Total # of neighbors = 2
Ave neighs/atom = 1
Neighbor list builds = 2685
Dangerous builds = 2523
Total wall time: 0:00:00
