variable tag string ffield_flip
log log.lammps_${tag}
atom_style full
units real
bond_style harmonic
angle_style harmonic

include "p3m.settings"
boundary p p p
pair_style 	lj/cut/coul/long 14 14
#processors * * 2

read_data "cap.data"
include "cgil.settings"

#dump alldump all custom 1000 all_${tag}.lammpstrj id mol type x y z q
fix            fxnvt electrolyte nvt temp 500.0 500.0 100.
fix            fxupdate top electrode/conp 1.0 1.979 couple bot -1.0 symm on write_inv ${tag}_inv.csv ffield on
variable       q atom q
compute        qtop top reduce sum v_q
compute        qbot bot reduce sum v_q
compute        qall ele reduce sum v_q
compute        ctemp electrolyte temp

fix print all print 10 "$(step:%8.3g) $(c_qtop:%20.15e) $(c_qbot:%20.15e)" file ${tag}.csv screen no title "#Fix electrode equal-style variable test  setting = ffield"

thermo 10
thermo_style custom step c_ctemp epair etotal c_qtop c_qbot c_qall
run 50
