LAMMPS (2 Sep 2026)
  using 1 OpenMP thread(s) per MPI task
units           lj
dimension       3
boundary        m m m
atom_style      bpm/sphere
special_bonds   lj 0.0 1.0 1.0 coul 1.0 1.0 1.0
newton          on off
comm_modify     vel yes cutoff 3.3
region          box block -15 15 -15 15 0 60.0
create_box      1 box bond/types 1 extra/bond/per/atom 15 extra/special/per/atom 50
Created orthogonal box = (-15 -15 0) to (15 15 60)
  1 by 1 by 4 MPI processor grid

molecule        my_mol "rect.mol"
Read molecule template my_mol:
#Made with create_mol.py
  1 molecules
  0 fragments
  0 bodies
  63 atoms with max type 1
  297 bonds with max type 1
  0 angles with max type 0
  0 dihedrals with max type 0
  0 impropers with max type 0
region          wall_cyl cylinder z 0.0 0.0 10.0 EDGE EDGE side in
region          dropzone cylinder z 0.0 0.0 10.0 40.0 50.0 side in

pair_style      gran/hertz/history 1.0 NULL 0.5 NULL 0.1 1
bond_style      bpm/rotational break no smooth no
pair_coeff      1 1
bond_coeff      1 1.0 0.2 0.01 0.01 0.0 0.0 0.0 0.0 0.2 0.04 0.002 0.002

compute         nbond all nbond/atom
compute         tbond all reduce sum c_nbond
compute         bond_ids all property/local batom1 batom2
compute         bond_properties all bond/local dist b1

compute_modify  thermo_temp dynamic/dof yes

fix             1 all wall/gran hertz/history 1.0 NULL 0.5 NULL 0.1 1 zplane 0.0 NULL
fix             2 all wall/gran/region hertz/history 1.0 NULL 0.5 NULL 0.1 1 region wall_cyl
fix             3 all gravity 1e-4 vector 0 0 -1
fix             4 all deposit 40 0 1500 712511343 mol my_mol region dropzone near 2.0 vz -0.05 -0.05
fix             5 all nve/bpm/sphere

timestep        0.05
thermo_style    custom step ke pe pxx pyy pzz c_tbond
thermo          100
#dump            1 all custom 500 atomDump id radius x y z c_nbond mol
#dump            2 all local 500 bondDump c_bond_ids[*] c_bond_properties[*]
#dump_modify     2 colname 1 "id1" colname 2 "id2" colname 3 "r" colname 4 "r0"

#dump            viz  all  image 250 bpm.pour-*.ppm mol type  bond atom type #                size 500 800 zoom 1.75  view 80 10 box no 0.025 #                shiny 0.6  fsaa yes ssao no 453983 0.6 region wall_cyl silver transparent 0.25
#dump_modify     viz pad 6 boxcolor gray backcolor black backcolor2 white #                amap 1 500 sa 1.0 8 #                firebrick gold forestgreen darkcyan orange midnightblue purple darkgray

run             100000

CITE-CITE-CITE-CITE-CITE-CITE-CITE-CITE-CITE-CITE-CITE-CITE-CITE

Your simulation uses code contributions which should be cited:

- BPM bond style: https://doi.org/10.1039/D3SM01373A

@Article{Clemmer2024,
 author =  {Clemmer, Joel T. and Monti, Joseph M. and Lechman, Jeremy B.},
 title =   {A soft departure from jamming: the compaction of deformable
            granular matter under high pressures},
 journal = {Soft Matter},
 year =    2024,
 volume =  20,
 number =  8,
 pages =   {1702--1718}
}

CITE-CITE-CITE-CITE-CITE-CITE-CITE-CITE-CITE-CITE-CITE-CITE-CITE

Generated 0 of 0 mixed pair_coeff terms from geometric mixing rule
Neighbor list info ...
  update: every = 1 steps, delay = 0 steps, check = yes
  max neighbors/atom: 2000, page size: 100000
  master list distance cutoff = 1.3
  ghost atom cutoff = 3.3
  binsize = 0.65, bins = 47 47 93
  1 neighbor lists, perpetual/occasional/extra = 1 0 0
  (1) pair gran/hertz/history, perpetual
      attributes: half, newton on, size, history
      pair build: half/size/bin/newton
      stencil: half/bin/3d
      bin: standard
Per MPI rank memory allocation (min/avg/max) = 6.704 | 6.704 | 6.704 Mbytes
   Step         KinEng         PotEng          Pxx            Pyy            Pzz          c_tbond    
         0  -0              0              0              0              0              0            
       100   0.0018335508   0.00025926523 -1.2375482e-05 -1.0844673e-05 -3.1868858e-07  9.4285714    
       200   0.0025960594   0.00020839118  2.5046298e-06  3.5295582e-06  4.409439e-06   9.4285714    
       300   0.0037002941   0.00047061973  6.0523265e-06  9.3809956e-07  5.1692947e-06  9.4285714    
       400   0.0060200006   0.00079201218 -2.0367487e-05 -1.5519847e-06 -4.5891929e-06  9.4285714    
       500   0.007457645    0.00059583545  2.1286671e-05  1.9254751e-05  1.3748685e-05  9.4285714    
       600   0.0078048005   5.7475659e-05 -1.9835939e-06  1.4212431e-05  2.4834584e-06  9.4285714    
       700   0.0075689409   0.00018354925 -8.3974302e-07  1.3155518e-05  2.8824694e-06  9.4285714    
       800   0.0074034253   0.00030684998  1.672194e-05   1.3582436e-05  1.352411e-05   9.4285714    
       900   0.0075615075   0.00013173119 -7.8831966e-06  1.3654661e-05 -2.6853711e-06  9.4285714    
      1000   0.0075898427   7.7249764e-05  8.2601322e-06  1.389569e-05   9.0843684e-06  9.4285714    
      1100   0.0075347601   0.00012859461  9.6740799e-06  1.3638135e-05  1.002989e-05   9.4285714    
      1200   0.0075072728   0.00016060278 -3.551904e-06   1.0717201e-05 -2.1183136e-06  9.4285714    
      1300   0.0075710194   0.0001011278   8.4898056e-06  1.6422747e-05  1.067087e-05   9.4285714    
      1400   0.0076284606   4.9612056e-05  5.0793294e-06  1.3606869e-05  6.5844461e-06  9.4285714    
      1500   0.0076088968   7.5860838e-05  2.0398919e-06  8.9806332e-06  2.2469116e-06  9.4285714    
      1600   0.005984572    0.00029227276  4.1041122e-06  1.8851954e-05  8.3896693e-06  9.4285714    
      1700   0.0080297945   0.00026829648  3.6378135e-06  2.3764846e-05  1.6791357e-06  9.4285714    
      1800   0.0087483523   0.00011772739  7.1482609e-06  3.5069278e-05  1.4931092e-05  9.4285714    
      1900   0.0086856558   0.00014897049  7.5013174e-06  3.5292532e-05  1.3542216e-05  9.4285714    
      2000   0.0086762775   0.00015379595  6.196257e-06   2.5995183e-05  7.0480927e-06  9.4285714    
      2100   0.0084577722   0.00015540402  8.5446783e-06  3.102859e-05   1.3678059e-05  9.4285714    
      2200   0.0083594993   0.0001212251   6.9447273e-06  2.8253594e-05  6.3524494e-06  9.4285714    
      2300   0.0083492489   0.00012756613  1.0372786e-05  2.3871028e-05  1.2494608e-05  9.4285714    
      2400   0.008307376    0.00016714685  1.0685138e-05  3.2406727e-05  1.1411822e-05  9.4285714    
      2500   0.008383357    9.6975363e-05  7.5243237e-06  2.6488503e-05  8.1730107e-06  9.4285714    
      2600   0.0084065313   9.3811819e-05  9.8023742e-06  2.7006673e-05  1.3022161e-05  9.4285714    
      2700   0.0082718127   0.00010275437  1.0372806e-05  2.8623573e-05  1.2222825e-05  9.4285714    
      2800   0.0073645848   0.00035958155  8.5731668e-06  1.8733407e-05  1.1109041e-05  9.4285714    
      2900   0.0072707072   0.0005106471   9.7410984e-06  1.6584905e-05  1.258607e-05   9.4285714    
      3000   0.0072225055   0.00036305442  5.4102967e-06  1.1704097e-05  1.1543127e-05  9.4285714    
      3100   0.0048245756   0.00032662671 -1.3136199e-05  1.8928782e-07  1.2250485e-05  9.4285714    
      3200   0.0045692452   0.00039344734 -1.2254321e-05  1.1538095e-06  1.2563702e-05  9.4285714    
      3300   0.0047655002   0.00020298186  5.4294102e-06  1.0240847e-05  1.7250149e-05  9.4285714    
      3400   0.0048430206   0.0001879143   9.9969691e-06  1.5653666e-05  1.8048341e-05  9.4285714    
      3500   0.0048337122   0.00022007919  1.0020347e-05  1.5403335e-05  1.860832e-05   9.4285714    
      3600   0.004714768    0.00016995632  1.0156978e-05  1.3226804e-05  1.533551e-05   9.4285714    
      3700   0.0045654551   0.0003147284   8.9184186e-06  1.6162379e-05  1.0460764e-05  9.4285714    
      3800   0.0045545866   0.00044763149  7.456393e-06   1.3540398e-05  1.3088702e-05  9.4285714    
      3900   0.0047304718   0.00027558046  9.0637226e-06  1.0873917e-05  1.6491451e-05  9.4285714    
      4000   0.0049120447   0.00010183339  8.4951385e-06  1.5664952e-05  1.4425347e-05  9.4285714    
      4100   0.0046852543   0.00023695826  5.8240106e-06  1.19828e-05    1.9294224e-05  9.4285714    
      4200   0.00353987     0.00064015336 -2.8144844e-05 -2.7047154e-05  1.0493755e-05  9.4285714    
      4300   0.0031991095   0.0005034321  -2.1627195e-05 -1.8733537e-05  7.8741571e-06  9.4285714    
      4400   0.003348275    0.00034308938  1.0516283e-05  1.0546064e-05  2.2707179e-05  9.4285714    
      4500   0.0034775381   0.00029363424  5.5764387e-07  4.5730706e-06  1.3995899e-05  9.4285714    
      4600   0.0029984744   0.00024266309  4.2050364e-06  3.8575953e-06  1.9354882e-05  9.4285714    
      4700   0.0030703117   0.00017530084  1.0819881e-05  9.5661938e-06  3.1201489e-05  9.4285714    
      4800   0.0031200068   0.00013453395  6.6985993e-06  9.5556439e-06  1.8699061e-05  9.4285714    
      4900   0.0030332781   0.00021880574  5.6911915e-06  4.5873525e-06  2.1993823e-05  9.4285714    
      5000   0.0030219011   0.00021378057  5.1851851e-06 -2.8166143e-06  2.5272214e-05  9.4285714    
      5100   0.0030503946   0.00014837835  4.5569804e-06 -7.9381978e-06  2.1897368e-05  9.4285714    
      5200   0.0030063929   0.00018605609  4.7808317e-06 -9.1038868e-06  2.7222117e-05  9.4285714    
      5300   0.0030003722   0.00022210059  4.6947529e-06 -4.2885508e-06  1.6692542e-05  9.4285714    
      5400   0.0031524615   0.00010448646  5.8829652e-06  2.146893e-06   2.3676069e-05  9.4285714    
      5500   0.0031998474   9.0557584e-05  6.9868948e-06  7.8653387e-06  3.3229893e-05  9.4285714    
      5600   0.0031494643   0.00016404019  6.4347148e-06  7.1336852e-06  1.8354706e-05  9.4285714    
      5700   0.0032127424   0.00011506024  6.2355407e-06  5.5911031e-06  2.2697817e-05  9.4285714    
      5800   0.0030759795   0.00012741547  6.4106092e-06  8.4131693e-06  2.736473e-05   9.4285714    
      5900   0.0025295845   0.00018964108  2.5531812e-06  3.468825e-06   1.6586511e-05  9.4285714    
      6000   0.0024610002   0.00020634405  3.1879965e-06  6.6465137e-07  1.3242017e-05  9.4285714    
      6100   0.0024848201   0.00019130654  4.8309731e-06  1.1487149e-05  2.8355827e-05  9.4285714    
      6200   0.0025064573   0.00023260041  6.1095713e-06  2.1239185e-06  2.9074024e-05  9.4285714    
      6300   0.0025830944   0.00016738736  2.3091302e-06 -2.6176872e-06  1.9103609e-05  9.4285714    
      6400   0.0033921161   0.000269544    5.4116734e-06 -2.7265613e-06  2.3757731e-05  9.4285714    
      6500   0.0038149256   0.00027546851  1.3356738e-05  3.2454503e-06  2.6771805e-05  9.4285714    
      6600   0.0038635621   0.00036999531  1.2472184e-05  1.7809755e-05  2.7377076e-05  9.4285714    
      6700   0.0038593448   0.00023816123  1.7979431e-06  9.0149966e-06  2.6286283e-05  9.4285714    
      6800   0.0037465866   0.00024112774  2.2115704e-05  1.2436445e-05  3.76644e-05    9.4285714    
      6900   0.0035308965   0.00037579531  2.4064219e-06  2.5371691e-06  3.312436e-05   9.4285714    
      7000   0.0031794376   0.00057523149 -3.1526953e-06 -2.7510981e-05  1.2813942e-05  9.4285714    
      7100   0.0032441114   0.00052152693  1.5003332e-05 -1.0854212e-05  3.383486e-05   9.4285714    
      7200   0.0034479975   0.00034836798  3.5574982e-06  4.3049626e-06  3.6098965e-05  9.4285714    
      7300   0.0035626787   0.0002581018   1.0004682e-05 -1.4984704e-05  3.9098662e-05  9.4285714    
      7400   0.003528189    0.0003241799   8.149038e-06   1.4392851e-05  3.5833063e-05  9.4285714    
      7500   0.0036324409   0.0002304613   8.1583106e-07  8.7838593e-06  3.0669525e-05  9.4285714    
      7600   0.0033180084   0.00012350026  1.0084066e-05  2.3368885e-06  3.9813626e-05  9.4285714    
      7700   0.0033593664   0.00024677229  1.6435068e-06  1.7119187e-05  3.7439091e-05  9.4285714    
      7800   0.0035947817   0.00025889286  4.1833038e-06  9.3761248e-06  3.1671157e-05  9.4285714    
      7900   0.0039593486   0.00019563999  1.2133424e-05  1.3238724e-05  3.5421678e-05  9.4285714    
      8000   0.0043094394   0.00020505593  1.2880846e-05  1.4016699e-05  3.7422095e-05  9.4285714    
      8100   0.0048529974   0.00019125697  2.0983978e-05  1.0377193e-05  3.2645852e-05  9.4285714    
      8200   0.0052716226   0.00018868093  3.5170948e-05  1.4120563e-05  4.4052875e-05  9.4285714    
      8300   0.0052620308   0.00026938609  3.2941092e-05  1.0061171e-05  4.3525719e-05  9.4285714    
      8400   0.005339532    0.00018217868  3.4687009e-05  8.7599892e-06  3.5528645e-05  9.4285714    
      8500   0.0053777874   0.00012124946  3.5686197e-05  8.8449173e-06  5.4282828e-05  9.4285714    
      8600   0.0052904516   0.00022497627  3.204458e-05   4.0477024e-06  3.9171756e-05  9.4285714    
      8700   0.00534618     0.00019827377  3.7350134e-05  1.1008029e-05  3.4348977e-05  9.4285714    
      8800   0.0054590143   0.00010215576  3.5776855e-05  1.4178073e-05  6.1244023e-05  9.4285714    
      8900   0.0054392242   0.00014860035  3.2017919e-05  1.0696895e-05  4.5219491e-05  9.4285714    
      9000   0.0054326407   0.0001786004   3.5942212e-05  1.1714022e-05  4.3198111e-05  9.4285714    
      9100   0.0048911701   0.00011865639  3.6573823e-05  1.2679926e-05  5.4115321e-05  9.4285714    
      9200   0.0049314869   0.0001058822   3.3900866e-05  1.2160265e-05  4.7861649e-05  9.4285714    
      9300   0.0049043424   0.00010926749  3.2536091e-05  1.0225669e-05  5.9031831e-05  9.4285714    
      9400   0.0047365301   0.00015203356  2.6504387e-05  1.6565865e-05  5.3061507e-05  9.4285714    
      9500   0.004577556    0.00020932125  2.3018681e-05  1.3204233e-05  5.5312416e-05  9.4285714    
      9600   0.0043797451   0.00040500565  2.6748775e-05  4.3759733e-06  6.2799357e-05  9.4285714    
      9700   0.0043672093   0.00052854781  1.3498941e-05  6.64026e-06    4.6256752e-05  9.4285714    
      9800   0.0045234437   0.00040297945  2.3189192e-05  1.4335685e-05  4.6929728e-05  9.4285714    
      9900   0.0047832364   0.00014380655  3.9140833e-05  1.8385837e-05  6.1772606e-05  9.4285714    
     10000   0.0047547957   0.00017974512  2.1939115e-05  9.8393682e-06  7.2005038e-05  9.4285714    
     10100   0.0045888678   0.00037432074  1.4833443e-05  9.1761477e-06  4.8556799e-05  9.4285714    
     10200   0.00459309     0.00027045379  4.5182212e-06  7.4120092e-06  4.8754368e-05  9.4285714    
     10300   0.0045475497   0.00017852883 -1.3031413e-05  6.1494754e-07  7.1001003e-05  9.4285714    
     10400   0.0042282056   0.00044372082 -3.8390322e-05  1.3165618e-05  5.670429e-05   9.4285714    
     10500   0.0042798705   0.00048805456 -2.9812095e-05  4.7984367e-06  4.9793825e-05  9.4285714    
     10600   0.0045832726   0.00021112615  1.6287063e-05  2.6817383e-05  5.8674942e-05  9.4285714    
     10700   0.0054850724   0.000165676    1.9455241e-05  5.7276781e-05  6.4904054e-05  9.4285714    
     10800   0.0057236133   0.00030757949  1.042682e-05   1.6138593e-05  7.0012917e-05  9.4285714    
     10900   0.0056776336   0.00029110581  1.2074179e-05  1.4728019e-05  6.4333014e-05  9.4285714    
     11000   0.005853186    0.00018386726  1.7247221e-05  5.9782345e-05  6.7043271e-05  9.4285714    
     11100   0.0056929131   0.00030255139  1.949702e-05   4.1234244e-05  6.4451045e-05  9.4285714    
     11200   0.0053830461   0.00045106942 -4.4990812e-06  7.9103914e-06  3.6292888e-05  9.4285714    
     11300   0.0055037381   0.00032202423  1.3907015e-05  4.342365e-05   4.9156874e-05  9.4285714    
     11400   0.0055248541   0.00031188503  4.6941275e-05  4.0136207e-05  6.6866753e-05  9.4285714    
     11500   0.0055120264   0.000338939    1.8749072e-06  1.8749597e-05  6.3726581e-05  9.4285714    
     11600   0.0055294574   0.00034485534  3.5865908e-05  3.3185752e-05  6.4602566e-05  9.4285714    
     11700   0.0056404893   0.00023470455  3.4297822e-05  4.8492345e-05  6.1107328e-05  9.4285714    
     11800   0.0056113345   0.00023289675  5.4007766e-06  4.7359398e-05  6.1628464e-05  9.4285714    
     11900   0.0052224988   0.00037632449  2.2769742e-05  3.3092622e-05  5.006834e-05   9.4285714    
     12000   0.0052321333   0.00049152025  1.3382674e-05  3.0700257e-05  6.1555695e-05  9.4285714    
     12100   0.0047747495   0.00060145477  6.4099041e-06  3.9336441e-05  5.0428128e-05  9.4285714    
     12200   0.0049750124   0.00044765914 -6.198728e-06   5.2364472e-05  6.7079806e-05  9.4285714    
     12300   0.0050953016   0.00031693875  4.5729557e-05  3.7958405e-05  7.9184625e-05  9.4285714    
     12400   0.0050314664   0.0003645098   2.7638138e-05  3.5198951e-05  5.4415446e-05  9.4285714    
     12500   0.0049509066   0.00044903461 -1.2587128e-05  4.9443797e-05  7.0361699e-05  9.4285714    
     12600   0.0048601371   0.00036456614  2.3374938e-05  2.1698817e-05  6.7756101e-05  9.4285714    
     12700   0.0045336814   0.00037214514  2.3043785e-05 -2.4164842e-05  5.7337417e-05  9.4285714    
     12800   0.0043150375   0.00041532869  1.3672967e-05  7.1291512e-06  7.5952525e-05  9.4285714    
     12900   0.0043105107   0.00045708803  1.1451732e-05  3.5923855e-05  7.2032118e-05  9.4285714    
     13000   0.0044476869   0.00034637601  3.4547035e-06  3.4688699e-05  7.2600367e-05  9.4285714    
     13100   0.0046402975   0.0002488479   3.1328528e-05  2.6046287e-05  6.6391802e-05  9.4285714    
     13200   0.0045495398   0.00035606671  2.3557894e-05  2.7156233e-05  9.8937014e-05  9.4285714    
     13300   0.0045506945   0.00037079838  1.1080231e-07  3.7104211e-05  7.4877648e-05  9.4285714    
     13400   0.0045050387   0.00034560197  1.8114227e-05  3.4515427e-05  5.444432e-05   9.4285714    
     13500   0.0042851508   0.00043153577  2.2510035e-05  1.904773e-05   2.8966892e-05  9.4285714    
     13600   0.0038581359   0.00035708711  2.0323567e-05  7.1764903e-06  3.06412e-05    9.4285714    
     13700   0.0035774441   0.00051357864  8.2202083e-06  1.6739943e-05  5.3659024e-05  9.4285714    
     13800   0.0038850611   0.00060408281  8.9066275e-06  2.0133333e-07  4.1071042e-05  9.4285714    
     13900   0.0041852115   0.00048585903  3.5249629e-05  3.7853225e-06  6.6036385e-05  9.4285714    
     14000   0.0046835692   0.00027965506  2.6029428e-05  3.7131313e-05  7.3804277e-05  9.4285714    
     14100   0.004687329    0.00038981945  1.6524847e-05  2.9094448e-05  6.6838159e-05  9.4285714    
     14200   0.0044849369   0.00054732181  2.8354692e-05  3.4135082e-05  5.8922198e-05  9.4285714    
     14300   0.0046299761   0.00040225937  1.86244e-05    3.0511264e-05  6.4699937e-05  9.4285714    
     14400   0.004755176    0.00028883964  2.3673668e-05  3.7515774e-05  6.9682321e-05  9.4285714    
     14500   0.0046298349   0.00037360618  2.6077281e-05  3.3132056e-05  7.2540661e-05  9.4285714    
     14600   0.0045378167   0.00047622497  1.1542767e-05  2.1752012e-05  6.2313986e-05  9.4285714    
     14700   0.0044800947   0.00047108652  2.4922276e-05  2.8583291e-05  6.2976899e-05  9.4285714    
     14800   0.0042937612   0.0004485002   2.23882e-05    3.4896713e-05  7.9247961e-05  9.4285714    
     14900   0.0040355201   0.00057526032  1.6225414e-05 -7.505984e-08   7.4223659e-05  9.4285714    
     15000   0.0039478297   0.00064302001  1.5960976e-05 -8.2074909e-06  5.6777793e-05  9.4285714    
     15100   0.0042302839   0.0003780378   2.6408059e-06  2.8437036e-05  6.9396531e-05  9.4285714    
     15200   0.004962784    0.0002681085   5.1365236e-05  4.1601582e-05  8.9218523e-05  9.4285714    
     15300   0.0050940909   0.00047483877  4.8624077e-05  1.8406683e-05  5.9925686e-05  9.4285714    
     15400   0.0050087834   0.00049167701  2.8763482e-05  1.9870965e-05  8.0090225e-05  9.4285714    
     15500   0.005090511    0.00030014133  5.0730683e-05  1.3780298e-05  8.0844837e-05  9.4285714    
     15600   0.0049914939   0.00038728249  6.6888431e-05  2.1730673e-05  6.3230119e-05  9.4285714    
     15700   0.0048092366   0.00057750602  4.6492629e-05  2.5548558e-05  7.4598953e-05  9.4285714    
     15800   0.0048974141   0.00046167493  2.3015239e-05  2.303276e-05   6.7589464e-05  9.4285714    
     15900   0.0051125555   0.00025709889  5.7789158e-05  4.9226022e-05  7.6351059e-05  9.4285714    
     16000   0.0050571412   0.00032388113  6.0851458e-05  2.6619024e-05  8.8468434e-05  9.4285714    
     16100   0.0048963043   0.00044061017  3.6395114e-05  1.7809408e-05  6.0990271e-05  9.4285714    
     16200   0.0048227165   0.00043977624  3.6306393e-05  2.7721981e-05  6.0764267e-05  9.4285714    
     16300   0.0049111055   0.0003114355   4.7240649e-05  2.4205749e-05  8.2525516e-05  9.4285714    
     16400   0.0042730461   0.00039039192  3.4267661e-05  7.9217506e-06  1.3475117e-05  9.4285714    
     16500   0.0042450093   0.00038398284  5.0126216e-05 -5.7473541e-07  3.3636432e-05  9.4285714    
     16600   0.0039597232   0.00043316802  2.5102948e-05 -2.498054e-06   6.9382257e-05  9.4285714    
     16700   0.0039987592   0.00048236423  3.3778762e-05 -7.1009869e-06  5.5558684e-05  9.4285714    
     16800   0.0040998852   0.00043871027  6.341367e-05  -5.3924644e-06  7.1561369e-05  9.4285714    
     16900   0.0042969231   0.00031759222  3.652798e-05   1.061738e-05   6.2185697e-05  9.4285714    
     17000   0.0042626749   0.00031580229  4.715375e-05   1.804368e-05   5.3517356e-05  9.4285714    
     17100   0.0042495055   0.00042045805  4.6796924e-05 -3.5081642e-06  5.2011175e-05  9.4285714    
     17200   0.004514926    0.00037593908  4.2644612e-05  9.8373916e-06  5.7026622e-05  9.4285714    
     17300   0.0046970144   0.00029912817  6.3109315e-05  3.3101768e-05  6.0084452e-05  9.4285714    
     17400   0.0046076967   0.00028803965  2.4564979e-05  4.1297736e-05  5.0725697e-05  9.4285714    
     17500   0.0044634539   0.00036187308  2.7800633e-05  1.4316931e-05  4.5214871e-05  9.4285714    
     17600   0.0044250804   0.00034296662  4.6251555e-05  3.9708416e-05  4.7177856e-05  9.4285714    
     17700   0.0044434858   0.00032606442  3.8453616e-05  4.1300372e-05  8.0978291e-05  9.4285714    
     17800   0.0041667422   0.00041222099  3.373408e-05   2.9996374e-05  2.7410845e-05  9.4285714    
     17900   0.0040615403   0.00039441633  2.0917073e-06  2.8345445e-05  2.9219265e-05  9.4285714    
     18000   0.0033878226   0.00043318558  1.5135636e-05  4.497421e-05   5.5948547e-05  9.4285714    
     18100   0.003263014    0.00035854624  3.8018518e-07  3.7374492e-05  2.4096903e-05  9.4285714    
     18200   0.0034119415   0.00033328004  4.6526642e-06  4.4562564e-05  6.1903477e-05  9.4285714    
     18300   0.0034651894   0.00031059058  4.9796725e-05  4.4198539e-05  3.4996542e-05  9.4285714    
     18400   0.0034993184   0.00026734199  2.4098764e-05  3.037792e-05   4.6950889e-05  9.4285714    
     18500   0.0034684442   0.00025986786  1.4599451e-05  6.2378501e-05  7.4034145e-05  9.4285714    
     18600   0.0034397439   0.00025846917  2.6831458e-05  3.4900884e-05  3.0528712e-05  9.4285714    
     18700   0.0034368017   0.00026735676  3.6169062e-05  2.7816889e-05  5.2830216e-05  9.4285714    
     18800   0.0033896176   0.00027234203  2.4964355e-05  6.6404484e-05  6.3056852e-05  9.4285714    
     18900   0.0033903809   0.00024302857  5.8916341e-06  3.7344547e-05  4.4253531e-05  9.4285714    
     19000   0.0033847321   0.00026269234  2.6026075e-05  3.830708e-05   5.8667201e-05  9.4285714    
     19100   0.0034137805   0.00024335887  3.4312057e-05  5.1995439e-05  5.4622499e-05  9.4285714    
     19200   0.0032401787   0.00023028584  6.1241418e-06  2.2914447e-05  4.9345137e-05  9.4285714    
     19300   0.0027607705   0.00034629797 -9.7216435e-06  1.9790411e-05  6.264976e-05   9.4285714    
     19400   0.0028022706   0.00039553007 -1.8939758e-05  1.4279464e-05  4.8901509e-05  9.4285714    
     19500   0.002849595    0.00031738621  2.8097273e-05  2.6963284e-05  2.3876923e-05  9.4285714    
     19600   0.002829685    0.00023888404  1.5760803e-05  4.9938673e-05  2.1401734e-05  9.4285714    
     19700   0.0028019488   0.00025563112  1.2750258e-05  1.7866689e-05  2.7447429e-05  9.4285714    
     19800   0.00278373     0.00023926068  3.1456405e-05  3.5808101e-05  3.9451715e-05  9.4285714    
     19900   0.0027544391   0.00027849137  2.0500069e-05  4.564252e-05   5.4030217e-05  9.4285714    
     20000   0.0027300306   0.00031422777  2.607016e-05   2.6318986e-05  5.4454247e-05  9.4285714    
     20100   0.0027709899   0.00028056123  2.289042e-05   2.8133073e-05  5.8353162e-05  9.4285714    
     20200   0.0028194028   0.00022715431  2.3705492e-05  3.9272725e-05  6.2292568e-05  9.4285714    
     20300   0.0028168872   0.00018769812  2.9532361e-05  3.208693e-05   5.5412945e-05  9.4285714    
     20400   0.0028261713   0.0001944377   2.0022497e-05  2.3061413e-05  5.678729e-05   9.4285714    
     20500   0.0028012915   0.0002053767   2.065691e-05   3.9301427e-05  5.320217e-05   9.4285714    
     20600   0.0028030869   0.00019925869  2.430506e-05   2.7948484e-05  5.6498283e-05  9.4285714    
     20700   0.0027980606   0.00019829197  2.1793535e-05  3.1967794e-05  4.7207715e-05  9.4285714    
     20800   0.0028110785   0.00017502141  1.6404414e-05  3.2605954e-05  6.7187361e-05  9.4285714    
     20900   0.0028260749   0.00016221021  1.8110845e-05  2.663161e-05   6.4392685e-05  9.4285714    
     21000   0.0028199122   0.00018351796  2.1915098e-05  3.84726e-05    4.7853545e-05  9.4285714    
     21100   0.0027629107   0.00018903506  1.5002711e-05  1.4982038e-05  6.3487793e-05  9.4285714    
     21200   0.0030070806   0.00015333756  2.4640211e-05  1.6421344e-05  6.4555951e-05  9.4285714    
     21300   0.0031172527   0.00019850085  4.0361407e-05  4.3571022e-05  7.2057371e-05  9.4285714    
     21400   0.0031399754   0.0002026551   2.9611697e-05  2.5990529e-05  6.3984173e-05  9.4285714    
     21500   0.0031972628   0.00013710994  3.0984431e-05  3.1815569e-05  7.1743442e-05  9.4285714    
     21600   0.0030703326   0.00015136383  3.4944935e-05  4.8601747e-05  8.889799e-05   9.4285714    
     21700   0.003115155    0.00014940245  3.7142456e-05  3.5519058e-05  7.7575522e-05  9.4285714    
     21800   0.0030739264   0.00018479063  1.3436158e-05  1.7643914e-05  5.6094166e-05  9.4285714    
     21900   0.0030612768   0.00017014502  2.7452182e-05  1.6431364e-05  7.4767591e-05  9.4285714    
     22000   0.0030815361   0.00013550145  2.5542275e-05  2.3453045e-05  7.0599031e-05  9.4285714    
     22100   0.0030867287   0.00015105992  2.0013944e-05  2.5695849e-05  6.8840256e-05  9.4285714    
     22200   0.0030386422   0.00019222491  2.0724977e-05  2.709909e-05   7.7035682e-05  9.4285714    
     22300   0.0030047157   0.00016187106  9.9300608e-07  2.4342664e-05  6.2451365e-05  9.4285714    
     22400   0.0029276749   0.00018384671  1.4118462e-05  2.2794999e-05  6.1758995e-05  9.4285714    
     22500   0.0028672151   0.00024816507  2.4701693e-05  2.6606342e-05  6.3526067e-05  9.4285714    
     22600   0.0027634754   0.000224936    1.3655058e-05  1.8519559e-05  4.7226979e-05  9.4285714    
     22700   0.0028067395   0.00015898418  3.0894225e-05  1.3163589e-05  5.8265322e-05  9.4285714    
     22800   0.0027823032   0.00016620155  2.5472348e-05  2.3138854e-05  7.6928819e-05  9.4285714    
     22900   0.0027050382   0.00021105418  3.4006012e-06  2.2031814e-05  5.8135688e-05  9.4285714    
     23000   0.0026767261   0.00020248822  2.4518217e-05  2.3275841e-05  7.4229564e-05  9.4285714    
     23100   0.0025959572   0.00023548316 -1.2521332e-05  1.8490132e-05  7.2391155e-05  9.4285714    
     23200   0.0026246032   0.00021809857  5.7489564e-06  6.129055e-06   5.2188183e-05  9.4285714    
     23300   0.0026690476   0.00016835575  3.8237849e-05  2.5371688e-05  6.7996313e-05  9.4285714    
     23400   0.0025918732   0.0002105784   1.011185e-05   2.0605789e-05  2.4800134e-05  9.4285714    
     23500   0.0025598905   0.00025942562  2.6805885e-05  7.7274536e-06  3.5078625e-06  9.4285714    
     23600   0.0026924551   0.00015992169  2.3632428e-05  2.6517643e-05  5.1832673e-05  9.4285714    
     23700   0.0027405197   0.00013190057  2.9827634e-05  1.9034999e-05  7.1304908e-05  9.4285714    
     23800   0.0026965439   0.00015407239  2.0389809e-05  1.1461054e-05  6.0030603e-05  9.4285714    
     23900   0.002682345    0.00015904302  4.9519444e-06  9.3330125e-06  5.7956675e-05  9.4285714    
     24000   0.0026669482   0.00017577596  2.2498844e-05  1.9682522e-05  6.3136572e-05  9.4285714    
     24100   0.0025545628   0.00014782233  2.1594332e-05  1.6016427e-05  5.903901e-05   9.4285714    
     24200   0.0024669035   0.00018429694  7.5092948e-06  8.0363645e-06  4.5500115e-05  9.4285714    
     24300   0.0024666901   0.00021113812  3.1262291e-05  1.4712832e-05  4.795147e-05   9.4285714    
     24400   0.0025830428   0.00016781055  1.3744755e-05  1.9285427e-05  6.5076948e-05  9.4285714    
     24500   0.0025882464   0.00020877885  4.108671e-05   2.9012548e-05  4.7718318e-05  9.4285714    
     24600   0.0025387586   0.00027179169  7.235153e-06   1.133009e-05   5.749411e-05   9.4285714    
     24700   0.0025726556   0.00019620311 -3.3258692e-06  1.2887585e-06  4.750739e-05   9.4285714    
     24800   0.0026135637   0.0001810883   1.6032638e-05  1.9989699e-05  4.1873006e-05  9.4285714    
     24900   0.0027217249   0.00026126811  7.4859763e-06  1.4349774e-05  4.9821829e-05  9.4285714    
     25000   0.0029355523   0.00019743261  2.9948214e-05  1.086096e-05   6.6763342e-05  9.4285714    
     25100   0.0030315812   0.00014933131  4.0128977e-05  2.3083938e-05  4.4074733e-05  9.4285714    
     25200   0.003038481    0.00014265737  4.9669282e-05  2.1211133e-05  6.6917737e-05  9.4285714    
     25300   0.0029634181   0.00019523346  5.3614785e-05  2.1837068e-05  5.5517551e-05  9.4285714    
     25400   0.0028162431   0.00024244938  3.7527539e-05  1.8703426e-06  1.0152436e-05  9.4285714    
     25500   0.002772402    0.00024712407  4.0107765e-05  3.2024306e-06  3.4274777e-05  9.4285714    
     25600   0.0027101588   0.00019388001  3.8501716e-05  2.4436301e-05  3.9176671e-05  9.4285714    
     25700   0.0027181118   0.00019522388  4.320494e-05   9.7132893e-06  3.6818002e-05  9.4285714    
     25800   0.0027473184   0.00017265243  5.3746715e-05  1.2849729e-05  6.4832426e-05  9.4285714    
     25900   0.0027771803   0.00012015613  5.2878304e-05  1.8823616e-05  5.7254752e-05  9.4285714    
     26000   0.0027306786   0.00015531722  4.0429046e-05  5.7425438e-06  5.3909367e-05  9.4285714    
     26100   0.0026527017   0.00020448     3.8656848e-05  6.0615789e-06  5.6968593e-05  9.4285714    
     26200   0.0026629468   0.00015806511  4.1179486e-05  3.2043264e-06  3.9586982e-05  9.4285714    
     26300   0.0025805474   0.00012620168  1.8911703e-05  2.7290193e-06  5.2524156e-05  9.4285714    
     26400   0.0024670662   0.00014389082  3.6475436e-05  4.8218888e-06  6.3285604e-05  9.4285714    
     26500   0.0023391123   0.00020857406  2.49829e-05   -8.8771063e-06  4.9249888e-05  9.4285714    
     26600   0.0023536942   0.0001760967   3.2613195e-05  1.3013124e-05  5.1841904e-05  9.4285714    
     26700   0.0024159949   0.000137871    3.8056639e-05  4.6472883e-05  8.5948356e-05  9.4285714    
     26800   0.0023993808   0.00016776863  2.7645642e-05  1.0301418e-05  6.4081613e-05  9.4285714    
     26900   0.0020383837   0.00020856257  1.0497704e-05 -2.3348671e-07  5.3070094e-05  9.4285714    
     27000   0.0020459553   0.00014514019  1.3939486e-05  2.3481456e-05  3.6963961e-05  9.4285714    
     27100   0.0021568704   0.00013806016  2.8731177e-05  2.7138033e-05  6.9521484e-05  9.4285714    
     27200   0.002271643    0.00024109426  3.5755184e-05  2.2412148e-05  6.0210512e-05  9.4285714    
     27300   0.0023696845   0.00030142514  1.6081241e-05  2.058589e-05   6.477763e-06   9.4285714    
     27400   0.0027124361   0.00017381705  2.4080898e-05  4.1988582e-05  6.0567479e-05  9.4285714    
     27500   0.0028388443   0.00013326644  4.9608688e-05  4.5843253e-05  8.7846161e-05  9.4285714    
     27600   0.0027190263   0.0002567838   2.2223809e-05  2.4090257e-05  4.7026084e-05  9.4285714    
     27700   0.0027226469   0.00024153379  3.9875179e-05  3.4431997e-05  5.0279819e-05  9.4285714    
     27800   0.002805893    0.00011773518  4.6255572e-05  4.4692494e-05  7.1519612e-05  9.4285714    
     27900   0.002783227    0.00013438353  2.853979e-05   3.4907675e-05  6.8562154e-05  9.4285714    
     28000   0.0026551784   0.00022720178  4.4755882e-05  3.0528276e-05  4.8465991e-05  9.4285714    
     28100   0.002622142    0.00023258631  3.2125604e-05  2.8184973e-05  3.9590591e-05  9.4285714    
     28200   0.0027169447   0.00016251663  3.9147291e-05  4.362129e-05   6.5721281e-05  9.4285714    
     28300   0.0025023768   0.00020062399  2.2952302e-05  4.9361278e-05  6.1192544e-05  9.4285714    
     28400   0.0023078884   0.00024710158 -1.1573948e-06  2.3890839e-05  4.92074e-05    9.4285714    
     28500   0.0023866117   0.0001934018   2.086339e-05   5.2564734e-05  6.1863948e-05  9.4285714    
     28600   0.002412941    0.00017916371  2.0596856e-05  4.7676755e-05  6.4562871e-05  9.4285714    
     28700   0.0027018223   0.00016832178  6.7697398e-06  3.2048468e-05  3.7150351e-05  9.4285714    
     28800   0.0027891771   0.00031255701  1.6528018e-05  6.8152469e-05  6.3502769e-05  9.4285714    
     28900   0.0028985477   0.00026975214  3.5311027e-05  5.4777273e-05  3.4513069e-05  9.4285714    
     29000   0.002988574    0.00017777059  3.713331e-05   5.3327443e-05  7.0031159e-05  9.4285714    
     29100   0.0029538123   0.00020368542  3.0564689e-05  8.221255e-05   7.8666936e-05  9.4285714    
     29200   0.0028784103   0.00022382566  2.2671993e-05  3.6384879e-05  5.0312987e-05  9.4285714    
     29300   0.0027700282   0.00022312303  3.4457004e-05  6.0589808e-05  6.0258959e-05  9.4285714    
     29400   0.0026463307   0.00030647501  3.5241388e-05  5.2806884e-05  8.3574933e-05  9.4285714    
     29500   0.0025522266   0.00035703533  1.4115175e-05 -4.9134934e-05  7.3932771e-05  9.4285714    
     29600   0.0025980045   0.0002641928   2.643416e-05   9.5400849e-06  7.1254484e-05  9.4285714    
     29700   0.0026385077   0.00024077594  3.490945e-05   4.0241842e-05  7.641928e-05   9.4285714    
     29800   0.0026498321   0.00022854666  2.8985372e-05  3.6463516e-05  8.5896641e-05  9.4285714    
     29900   0.0026270846   0.00023896633  1.2948792e-05  2.8813354e-05  9.5277384e-05  9.4285714    
     30000   0.0026443977   0.00022984592  3.6841226e-05  4.4503905e-05  7.4755895e-05  9.4285714    
     30100   0.002793229    0.00019494225  4.6934864e-05  5.9890521e-05  7.5556834e-05  9.4285714    
     30200   0.0030649599   0.0002146857   3.3451469e-05  2.998352e-05   8.7627021e-05  9.4285714    
     30300   0.003045646    0.000238141    4.3250374e-05  3.2855306e-05  7.5170916e-05  9.4285714    
     30400   0.0030711843   0.00019445759  3.8662389e-05  3.6167911e-05  9.519891e-05   9.4285714    
     30500   0.0030139555   0.00021879022  4.5263197e-05  2.0959347e-05  8.9271518e-05  9.4285714    
     30600   0.0029390911   0.00026538145  4.3317722e-05  1.9838017e-05  6.5869909e-05  9.4285714    
     30700   0.0029890757   0.00020673592  3.2754853e-05  2.3854851e-05  8.3975494e-05  9.4285714    
     30800   0.0030305944   0.00015315609  4.9159752e-05  4.3355992e-05  8.7729499e-05  9.4285714    
     30900   0.0029738794   0.00020199355  3.8728608e-05  4.5949095e-05  7.4276627e-05  9.4285714    
     31000   0.0029125416   0.00021814124  2.7969278e-05  3.2589575e-05  6.616812e-05   9.4285714    
     31100   0.0028785446   0.00018611877  3.1778502e-05  3.4738487e-05  5.0277967e-05  9.4285714    
     31200   0.0026777946   0.00017329706  3.6862259e-05  1.4183017e-05  5.5909058e-05  9.4285714    
     31300   0.0025453274   0.00038256289  4.2771419e-05  1.409943e-05   7.081471e-05   9.4285714    
     31400   0.0022645873   0.0006029349   3.2590579e-05  2.2523438e-05  4.1125586e-05  9.4285714    
     31500   0.0023506828   0.00050503727  3.8804036e-05  1.2811006e-05  3.4487685e-05  9.4285714    
     31600   0.0025556597   0.00026847755  5.000494e-05   3.4119342e-05  8.2058136e-05  9.4285714    
     31700   0.0026018026   0.00023190375  1.7933833e-05  4.612655e-05   3.9378727e-05  9.4285714    
     31800   0.0025092867   0.00032607227  4.0198368e-05  3.5156915e-05  2.4626665e-05  9.4285714    
     31900   0.0025031245   0.00031005611  4.4132547e-05  3.6828063e-05  4.2405349e-05  9.4285714    
     32000   0.0025726485   0.00021239193  2.8308244e-05  3.301326e-05   7.0095167e-05  9.4285714    
     32100   0.0025208742   0.00018126761  4.240376e-05   4.5991637e-05  9.3740039e-05  9.4285714    
     32200   0.0021725398   0.00037293841 -3.1122994e-05  1.6919356e-05  2.5515702e-05  9.4285714    
     32300   0.0020817388   0.00032441536  3.6241371e-06  2.4035323e-05  3.2100637e-05  9.4285714    
     32400   0.0021728659   0.0002255001   1.6884833e-05  3.5001192e-05  9.5527996e-05  9.4285714    
     32500   0.0022007975   0.00019316554  1.1728687e-05  2.343183e-05   6.7331139e-05  9.4285714    
     32600   0.0021602017   0.00025943964  4.3184353e-05  4.1084128e-05  5.8537995e-05  9.4285714    
     32700   0.0021606417   0.00025863198  3.0402389e-05  3.4615814e-05  4.9354182e-05  9.4285714    
     32800   0.0022252286   0.00017892492  3.0207518e-05  1.9434188e-05  9.1543619e-05  9.4285714    
     32900   0.0022192228   0.00016223888  4.7811305e-05  3.7978652e-05  9.8933598e-05  9.4285714    
     33000   0.0021520814   0.00022288545  2.796217e-05   2.5913824e-05  5.2314828e-05  9.4285714    
     33100   0.0020502633   0.00025963853  1.1380598e-05  1.3248966e-05  5.3283064e-05  9.4285714    
     33200   0.0021692759   0.00017292972  3.0195346e-05  3.6211878e-05  6.6133739e-05  9.4285714    
     33300   0.0020916458   0.00017572638  3.4090984e-05  1.655206e-05   8.9324954e-05  9.4285714    
     33400   0.001972137    0.00028932428  2.4102746e-05  1.3494215e-05  8.7449228e-05  9.4285714    
     33500   0.00194721     0.00032104325 -4.0267622e-06  2.980039e-06   5.4544728e-05  9.4285714    
     33600   0.001987164    0.00026079351  2.9216393e-05  1.9615593e-05  5.1671129e-05  9.4285714    
     33700   0.0020594635   0.00015870551  3.2087082e-05  3.972735e-05   7.0251834e-05  9.4285714    
     33800   0.0019637626   0.00021980663  1.1355944e-05  1.5826373e-05  5.089307e-05   9.4285714    
     33900   0.0018703324   0.00030387233  2.2056779e-05  2.6552712e-05  3.6340408e-05  9.4285714    
     34000   0.0019435721   0.00023865562  1.1622872e-05  4.3995925e-05  4.1822768e-05  9.4285714    
     34100   0.001979967    0.00015589139  3.0996074e-05  3.3681343e-05  5.2183098e-05  9.4285714    
     34200   0.0018239165   0.00020780062  7.2625069e-06  1.7870299e-05  3.3684847e-05  9.4285714    
     34300   0.0017620427   0.00023578991  4.2011304e-07  2.0231607e-05  2.5123014e-05  9.4285714    
     34400   0.0017953215   0.00019091036  3.4646034e-05  2.1058862e-05  5.7444534e-05  9.4285714    
     34500   0.0017541954   0.00019463864  1.1279035e-05  1.732355e-05   2.5381597e-05  9.4285714    
     34600   0.0017940296   0.00018333534  1.351817e-05   8.8178607e-06  4.4833816e-05  9.4285714    
     34700   0.0018743219   0.00019534531  2.9378376e-05  2.8883912e-05  6.941099e-05   9.4285714    
     34800   0.0019822772   0.00020888136  3.7205054e-06  1.5017745e-05  2.0125844e-05  9.4285714    
     34900   0.0021364195   0.00018205403  2.4052106e-05  2.0956697e-05  6.066939e-05   9.4285714    
     35000   0.0022155701   0.000156866    3.5012238e-05  4.829297e-05   6.5990606e-05  9.4285714    
     35100   0.0021706912   0.00018184774  2.2267082e-05  4.2651005e-05  3.8552836e-05  9.4285714    
     35200   0.0021116443   0.00022636259  2.7460532e-05  4.4900122e-05  4.9950048e-05  9.4285714    
     35300   0.0021050901   0.00017871065  2.6954346e-05  3.851418e-05   3.2012354e-05  9.4285714    
     35400   0.002077516    0.0001388028   1.5000941e-05  4.0369887e-05  3.1787517e-05  9.4285714    
     35500   0.0020395021   0.00017793825  1.8366903e-05  4.4942977e-05  4.8527696e-05  9.4285714    
     35600   0.0020487194   0.00018555058  1.6836319e-05  4.016564e-05   4.0667659e-05  9.4285714    
     35700   0.0020823847   0.00015200474  2.7158053e-05  4.8228676e-05  5.3763944e-05  9.4285714    
     35800   0.0021258652   0.0001156898   3.5865788e-05  6.0277288e-05  5.9918606e-05  9.4285714    
     35900   0.0020689496   0.00014384512  1.7302398e-05  3.6880858e-05  5.9738043e-05  9.4285714    
     36000   0.0019694553   0.00018258672  1.2223252e-05  1.4298923e-05  3.9337071e-05  9.4285714    
     36100   0.001899215    0.00014868292  1.571736e-05   2.5424272e-05  2.0062272e-05  9.4285714    
     36200   0.0018667173   0.00012490812  2.0104939e-05  2.7360025e-05  4.6893565e-05  9.4285714    
     36300   0.0018147202   0.00014266839  2.4389897e-05  1.8522597e-05  3.4614057e-05  9.4285714    
     36400   0.0017768503   0.00017656033  2.0610682e-05  3.890984e-05   1.4006255e-05  9.4285714    
     36500   0.0018142202   0.00014774173  2.2864837e-05  3.8231367e-05  2.4759839e-05  9.4285714    
     36600   0.0018538417   0.00011618344  2.5020536e-05  5.0306018e-05  3.7727192e-05  9.4285714    
     36700   0.001860003    0.00010688352  8.3126162e-06  3.9328663e-05  5.16902e-05    9.4285714    
     36800   0.0017219284   0.00014115359  7.051596e-06  -1.485267e-05   4.7691012e-05  9.4285714    
     36900   0.0015262733   0.00016241808  1.0064763e-05 -1.859545e-05   3.9421845e-05  9.4285714    
     37000   0.0014153017   0.00014301709  7.1071351e-06  1.4743775e-05  4.8326641e-05  9.4285714    
     37100   0.0014239488   0.0001529828   9.6372686e-06 -3.7815106e-05  4.2654462e-05  9.4285714    
     37200   0.0014632122   0.00012583983  1.5689683e-05  4.1214221e-05  5.2558264e-05  9.4285714    
     37300   0.0015112379   0.00011322425 -3.4368469e-06  2.1708672e-05  5.1236719e-05  9.4285714    
     37400   0.0014633069   0.00013196869  1.0206478e-05  2.1955085e-05  5.1062834e-05  9.4285714    
     37500   0.0014086702   0.00016499345  1.461291e-05   3.5051364e-05  5.2658605e-05  9.4285714    
     37600   0.0014203882   0.00013813432  1.1131704e-06  1.4995038e-05  3.8339657e-05  9.4285714    
     37700   0.0014487036   9.4720099e-05  2.0557604e-05  2.2679433e-05  8.9537947e-05  9.4285714    
     37800   0.0014237036   0.00012809273  2.6273245e-07  3.6749898e-05  5.6020947e-05  9.4285714    
     37900   0.0014322453   0.00012568346  1.6678148e-06  2.940454e-05   3.2458823e-05  9.4285714    
     38000   0.0014344195   9.3882898e-05  2.4910695e-05  2.2577637e-05  6.9685085e-05  9.4285714    
     38100   0.0014078306   0.00011037524 -3.0467298e-06  3.339557e-05   3.0438296e-05  9.4285714    
     38200   0.0013999511   0.00012589091  1.3152912e-05  3.2091623e-05  5.337184e-05   9.4285714    
     38300   0.0013864403   0.00011750288  1.7101758e-05  3.0550473e-05  6.0611119e-05  9.4285714    
     38400   0.001400951    8.9773567e-05  3.6991966e-06  2.2971127e-05  4.351873e-05   9.4285714    
     38500   0.0013822341   0.00010687632  2.4031122e-05  3.0255661e-05  6.5359536e-05  9.4285714    
     38600   0.0013342298   0.00014415065 -2.3143823e-06  1.6907385e-05  4.1894379e-05  9.4285714    
     38700   0.0013342015   0.00012244648  2.6465765e-06  1.2167244e-05  4.1566326e-05  9.4285714    
     38800   0.0013270228   0.00010000315  2.3525812e-05  3.5406593e-05  5.9228809e-05  9.4285714    
     38900   0.0013264374   9.4535896e-05  5.6556046e-06 -5.7752087e-06  4.6074985e-05  9.4285714    
     39000   0.0013154367   0.00011565134  1.5685469e-05  1.2504246e-06  5.3525769e-05  9.4285714    
     39100   0.0013007196   0.00011518892  6.4513382e-06  2.5955001e-05  5.7166284e-05  9.4285714    
     39200   0.0013122937   9.8677449e-05 -7.4945966e-06  5.8311156e-06  3.5997286e-05  9.4285714    
     39300   0.0013336493   0.00010607501  1.9459197e-05  2.3413293e-05  4.9572415e-05  9.4285714    
     39400   0.0013745875   0.00014463137  1.4980972e-05  1.8388316e-05  4.3842677e-05  9.4285714    
     39500   0.0014955458   0.00010986167  6.8354011e-06  1.6633548e-05  3.8787919e-05  9.4285714    
     39600   0.0015979065   8.0859112e-05  3.6858708e-05  5.5777941e-05  5.7446127e-05  9.4285714    
     39700   0.0016472463   0.00012039904  2.8329042e-05  2.8952729e-05  4.3050445e-05  9.4285714    
     39800   0.0016531458   0.00012479796  3.8076195e-05  2.4890033e-05  4.2429586e-05  9.4285714    
     39900   0.0016909405   7.9953811e-05  4.5328192e-05  3.4042002e-05  5.6202583e-05  9.4285714    
     40000   0.001703267    5.7639119e-05  3.3821487e-05  2.1834763e-05  5.0756679e-05  9.4285714    
     40100   0.0016474586   8.9878014e-05  4.4805074e-05  1.1678494e-05  4.745831e-05   9.4285714    
     40200   0.0016204211   0.00010859153  3.5359678e-05 -1.7562935e-05  4.9741698e-05  9.4285714    
     40300   0.0016492051   8.0809335e-05  3.1747919e-05  1.9650007e-05  4.314097e-05   9.4285714    
     40400   0.0016713187   6.9740989e-05  5.1963352e-05  4.0810556e-05  5.4393541e-05  9.4285714    
     40500   0.0016400705   0.00010209787  3.4068753e-05  9.3745621e-06  5.6653328e-05  9.4285714    
     40600   0.0016259848   9.8656062e-05  3.19387e-05    2.2287178e-05  4.9631098e-05  9.4285714    
     40700   0.0016624554   6.412624e-05   4.0073654e-05  3.6401725e-05  7.0370287e-05  9.4285714    
     40800   0.0016529881   6.2554761e-05  2.0939025e-05  2.7084101e-05  6.2408972e-05  9.4285714    
     40900   0.0016056414   9.7185749e-05  1.9603223e-05  1.5905031e-05  4.3159152e-05  9.4285714    
     41000   0.0016066198   9.6477429e-05  2.5614775e-05  9.434038e-06   5.4855751e-05  9.4285714    
     41100   0.0016281274   7.0586916e-05  2.7587848e-05  2.6897536e-05  5.8837669e-05  9.4285714    
     41200   0.0016431818   5.6973202e-05  3.7324911e-05  2.4173678e-05  6.0221665e-05  9.4285714    
     41300   0.0015963627   8.2518754e-05  2.7877246e-05  1.1293038e-05  5.6797231e-05  9.4285714    
     41400   0.0015658835   9.8140171e-05  1.8265953e-05  1.4561592e-05  4.3701328e-05  9.4285714    
     41500   0.0015576639   8.1799715e-05  8.6065467e-06  2.3846002e-05  5.710626e-05   9.4285714    
     41600   0.0014682821   7.6211094e-05 -6.1422307e-06  2.2337027e-05  5.7208769e-05  9.4285714    
     41700   0.0013670177   0.00011733762  1.139641e-05   1.6182805e-05  5.553025e-05   9.4285714    
     41800   0.0013062203   0.00017573024 -1.4993751e-05  1.6358088e-05  6.1685924e-05  9.4285714    
     41900   0.0013152776   0.00014730577 -7.2082992e-06  1.9214018e-05  5.9764869e-05  9.4285714    
     42000   0.0013646707   7.4954497e-05  2.2551021e-05  1.4752468e-05  7.6144314e-05  9.4285714    
     42100   0.0014413818   8.4250875e-05  1.2447414e-05  1.5788644e-05  7.3703467e-05  9.4285714    
     42200   0.001524921    0.0001266106   1.5044104e-05  2.3669406e-05  7.6237818e-05  9.4285714    
     42300   0.0015219043   0.00011781813  2.0672188e-05  1.8086137e-05  7.1408453e-05  9.4285714    
     42400   0.0015528815   9.129585e-05   2.9001675e-05  1.9850067e-05  7.7534938e-05  9.4285714    
     42500   0.0015091302   0.00013724228  2.0143528e-05  2.5675473e-05  8.635057e-05   9.4285714    
     42600   0.0015267036   0.0001194136   1.596733e-05   1.965446e-05   6.1241116e-05  9.4285714    
     42700   0.001563752    8.1586083e-05  2.9341895e-05  4.7737783e-05  6.6902358e-05  9.4285714    
     42800   0.0015328673   0.00010069592  2.6991406e-05  2.6334128e-05  7.3936296e-05  9.4285714    
     42900   0.0014719735   0.00013058269  2.0081389e-05  6.1547671e-06  3.6236403e-05  9.4285714    
     43000   0.001475921    0.00011751146  2.8314433e-05  3.3047636e-05  3.5331202e-05  9.4285714    
     43100   0.0014420734   0.00010725279  1.9192875e-05  2.8372286e-05  7.1612356e-05  9.4285714    
     43200   0.001393014    0.0001313478   1.8485481e-05  1.1641724e-05  3.4793921e-05  9.4285714    
     43300   0.0013720935   0.00015813338  2.1023742e-05  1.725663e-05   5.1180457e-05  9.4285714    
     43400   0.0013992225   0.00013639346  7.4116172e-06  2.4881654e-05  6.5804397e-05  9.4285714    
     43500   0.0014383388   9.3636264e-05  2.5635457e-05  2.2982618e-05  4.9764425e-05  9.4285714    
     43600   0.0014716947   0.00012208416  3.6391581e-05  2.9507751e-05  7.2861562e-05  9.4285714    
     43700   0.0015760454   0.00014346631  2.8095207e-06  2.8381339e-05  5.3926648e-05  9.4285714    
     43800   0.0017187023   0.00015068667  1.384095e-05   1.6004901e-05  3.4521666e-05  9.4285714    
     43900   0.0018464666   0.0001153425   3.7031338e-05  4.0801364e-05  5.4489418e-05  9.4285714    
     44000   0.0018215766   0.00015093338  2.2508107e-05  4.4967909e-05  4.1955827e-05  9.4285714    
     44100   0.0017713731   0.0001867066   2.3841006e-05  3.5648391e-05  1.2247314e-05  9.4285714    
     44200   0.0017657774   0.00017188879  3.0847623e-05  4.210487e-05   2.3290923e-05  9.4285714    
     44300   0.0017945761   0.00013006413  3.2289992e-05  3.7117223e-05  4.5034758e-05  9.4285714    
     44400   0.0017971489   0.00011714101  2.1356226e-05  3.9189052e-05  3.8284431e-05  9.4285714    
     44500   0.0017730324   0.00013794662  2.9009388e-05  4.3673988e-05  3.4110568e-05  9.4285714    
     44600   0.0017583705   0.00012156689  3.4490308e-05  3.8247235e-05  3.9751805e-05  9.4285714    
     44700   0.0014312347   0.0001341756   2.0605594e-05  1.9159412e-05  7.3679244e-05  9.4285714    
     44800   0.0013920284   0.0001455161   3.8208404e-05  1.3936642e-05  6.3145366e-05  9.4285714    
     44900   0.0014241638   0.0001386946   2.502667e-05   2.8375466e-05  5.9966451e-05  9.4285714    
     45000   0.0014635391   0.00010151395  1.8129134e-05 -9.704536e-07   5.8211769e-05  9.4285714    
     45100   0.0014266837   0.00012198741  2.0593562e-05  1.2340578e-06  7.0819083e-05  9.4285714    
     45200   0.0014352075   0.00011693773  1.3960453e-05  5.2030993e-06  5.749339e-05   9.4285714    
     45300   0.0014585814   0.00011121625  1.4037897e-05  2.0090859e-05  5.7399053e-05  9.4285714    
     45400   0.0015047185   0.0001054826   2.5184161e-05  7.8870803e-06  6.3081384e-05  9.4285714    
     45500   0.0015023644   0.00011415824  2.767139e-05  -1.6467951e-05  5.4229346e-05  9.4285714    
     45600   0.0015149879   0.00013484114  3.5166529e-05  1.8118475e-05  4.8935878e-05  9.4285714    
     45700   0.0015921989   0.00015054114  2.9645618e-05  1.1024306e-05  5.4633877e-05  9.4285714    
     45800   0.0016822575   0.00014396474  2.8713426e-05 -2.5858971e-05  4.9789026e-05  9.4285714    
     45900   0.0017517735   9.5689306e-05  5.0500515e-05  1.7262712e-05  5.6253701e-05  9.4285714    
     46000   0.0016707488   0.00014802028  2.8248199e-05  1.3332097e-05  5.512451e-05   9.4285714    
     46100   0.0016385282   0.00019158387  1.7481938e-05  1.4790738e-05  4.8295982e-05  9.4285714    
     46200   0.0016650821   0.00016332298  3.9631579e-05  2.8971825e-05  5.0458515e-05  9.4285714    
     46300   0.0017198085   0.00010345725  4.1775855e-05  2.6076163e-05  5.6173397e-05  9.4285714    
     46400   0.0016660289   0.00012340544  2.7588988e-05  5.9775876e-05  4.2213485e-05  9.4285714    
     46500   0.0016127114   0.00015143787  2.2207342e-05  1.1387933e-05  4.0022082e-05  9.4285714    
     46600   0.0016570374   0.00012771184  3.4957973e-05  1.2842146e-05  6.8272667e-05  9.4285714    
     46700   0.0016993574   0.00011478681  4.1566804e-05  5.134614e-05   4.4131212e-05  9.4285714    
     46800   0.0017329891   0.00011547463  2.3251753e-05 -4.0556549e-06  3.009978e-05   9.4285714    
     46900   0.0017506878   0.00014180289  3.7478756e-05  1.4127251e-05  5.9685046e-05  9.4285714    
     47000   0.001839757    0.00011933133  5.086835e-05   1.6964115e-05  3.7585411e-05  9.4285714    
     47100   0.0019404649   9.7343594e-05  5.0645617e-05  4.7692175e-06  3.4929573e-05  9.4285714    
     47200   0.0019643232   0.00013244683  4.4304828e-05  3.0309882e-05  4.7714576e-05  9.4285714    
     47300   0.0018930185   0.00015469256  3.1628157e-05  3.9037721e-06  5.230092e-05   9.4285714    
     47400   0.0018685439   0.00016321868  4.2309081e-05  3.3660652e-06  5.0055737e-05  9.4285714    
     47500   0.0018255791   0.00016032329  5.0781363e-05  9.2122038e-06  4.8175359e-05  9.4285714    
     47600   0.0015669988   0.00013252967  8.2240802e-06 -6.9580883e-07  4.4041958e-05  9.4285714    
     47700   0.0014591988   0.00014083188  3.5036472e-06  2.4418464e-05  3.9886689e-05  9.4285714    
     47800   0.0015581451   0.00015802064  2.845806e-05  -7.4358076e-06  5.1155601e-05  9.4285714    
     47900   0.0015522898   0.00014049894  4.0379758e-05  8.6247385e-06  4.9713491e-05  9.4285714    
     48000   0.0015455018   0.00012706128  3.9784886e-05  6.6625079e-05  3.296274e-05   9.4285714    
     48100   0.0014964414   0.00018679396  2.2718721e-05  2.0889029e-05  1.3168243e-05  9.4285714    
     48200   0.0015697842   0.00022830658  2.6923565e-05  1.3911396e-05  2.7493364e-05  9.4285714    
     48300   0.0017427312   0.00019461388  3.0868688e-05  4.6164024e-05  2.4295736e-05  9.4285714    
     48400   0.0014791785   0.0001995573   1.9914909e-05  7.2595469e-05  3.8244987e-05  9.4285714    
     48500   0.0014874029   0.00021354894  1.8663914e-05  5.5564231e-05  6.6322237e-05  9.4285714    
     48600   0.0014941885   0.00018401874  3.4124609e-05  1.3159841e-05  5.7127232e-05  9.4285714    
     48700   0.0013841475   0.00023904928  2.9872433e-05  2.2426962e-05  5.2504355e-05  9.4285714    
     48800   0.0014435203   0.00017100067  1.5217414e-05  4.9066576e-05  2.3915721e-05  9.4285714    
     48900   0.001439239    0.00015377902  1.5275809e-05  2.3055714e-05  7.3885999e-05  9.4285714    
     49000   0.0013632178   0.00019645443  1.7167179e-05 -1.1682498e-05  7.0815163e-05  9.4285714    
     49100   0.0012899037   0.0002066743   2.0192195e-05 -7.8299714e-06  8.8447573e-06  9.4285714    
     49200   0.0012375915   0.00017937605 -2.9416936e-05  2.3707632e-05  3.3117865e-05  9.4285714    
     49300   0.0012324057   0.00014278113 -1.8948475e-06  4.5997434e-05  4.2605709e-05  9.4285714    
     49400   0.0011498428   0.00021354607  2.402491e-05   6.502292e-06   2.4608245e-05  9.4285714    
     49500   0.0011192828   0.00022270836 -1.6908865e-05 -3.0419063e-07  3.0821903e-05  9.4285714    
     49600   0.001203167    0.0001591062   1.5972783e-05  2.8379907e-05  1.9208401e-05  9.4285714    
     49700   0.0012770074   0.00013677523  2.7937343e-05  2.5453073e-05  6.7397798e-05  9.4285714    
     49800   0.0012215246   0.00018884438  6.5147833e-06  1.2285525e-05  5.8557074e-05  9.4285714    
     49900   0.0012078882   0.00018700323  1.5391009e-05  2.2141943e-05  8.256215e-06   9.4285714    
     50000   0.0012596586   0.00011717655  2.2273595e-05  2.3521786e-05  5.2813144e-05  9.4285714    
     50100   0.0012750512   9.623547e-05   1.558086e-05   2.0625858e-05  6.5793904e-05  9.4285714    
     50200   0.0012072622   0.00015672915  7.1829411e-06  1.8147198e-05  3.341917e-05   9.4285714    
     50300   0.0011822085   0.00015986386  8.0455834e-06  1.9463831e-05  2.8476284e-05  9.4285714    
     50400   0.0012011433   0.00010768362  1.5497872e-05  1.6216485e-05  4.0522232e-05  9.4285714    
     50500   0.0011118445   0.00013688786 -3.2305977e-05 -2.4714665e-05  5.5945834e-05  9.4285714    
     50600   0.0011001763   0.00012232052 -1.5543243e-05 -5.3895998e-07  4.5023689e-05  9.4285714    
     50700   0.0010873776   0.00013192635  2.6504246e-05  1.9352689e-05  4.3360439e-05  9.4285714    
     50800   0.0011268885   0.0001127233  -5.9302969e-07  4.4703277e-06  4.7382153e-05  9.4285714    
     50900   0.0011140754   0.00010492615  9.183549e-06   1.963045e-05   7.2064446e-05  9.4285714    
     51000   0.0010877791   0.000112061    1.966944e-05   2.3120486e-05  3.4284632e-05  9.4285714    
     51100   0.0010825133   0.00012531479 -6.9934474e-07  3.402021e-06   2.8272801e-05  9.4285714    
     51200   0.001096347    0.00012332041 -3.6564596e-06  1.8799459e-05  7.4229324e-05  9.4285714    
     51300   0.001136077    9.173594e-05   1.8813894e-05  3.268909e-05   3.5099828e-05  9.4285714    
     51400   0.0010830765   0.00011537018 -4.3074524e-06  9.6480344e-06  2.8882546e-05  9.4285714    
     51500   0.0010740877   0.00013924344  5.4671293e-06  5.3809993e-06  3.8255619e-05  9.4285714    
     51600   0.0010795888   0.00016300777  1.3254511e-05  1.2762046e-05  1.5572358e-05  9.4285714    
     51700   0.0010790286   0.00016938859  2.1388408e-05  1.3158358e-05  8.1374922e-06  9.4285714    
     51800   0.0010875999   0.00015349495  3.2024342e-05  1.3628685e-05  3.1500288e-05  9.4285714    
     51900   0.0010987673   0.00013879027  2.4226959e-05  8.5354618e-06  3.107578e-05   9.4285714    
     52000   0.0010877353   0.00014513937  2.5028937e-05  1.9352737e-05  3.8005147e-05  9.4285714    
     52100   0.0010836582   0.00013828802  3.2026364e-05  2.1752999e-05  3.6103683e-05  9.4285714    
     52200   0.0010820601   0.00012743562  2.1393298e-05  1.0174783e-05  3.3768661e-05  9.4285714    
     52300   0.0010697863   0.00011655834  2.0040321e-05  8.9182857e-06  4.4216384e-05  9.4285714    
     52400   0.0010593758   0.00010757579  2.1515842e-05  1.1832965e-05  3.2545272e-05  9.4285714    
     52500   0.0010172536   0.00013181624  1.1717631e-05  1.0264624e-05  2.4530879e-05  9.4285714    
     52600   0.0010266329   0.00013151069  1.9591841e-05  1.1449788e-05  3.1383415e-05  9.4285714    
     52700   0.0010589536   0.00011834665  2.0678791e-05 -5.9060737e-06  1.7274957e-05  9.4285714    
     52800   0.0011151441   0.00010874961  2.3342959e-05 -2.7667712e-06  1.2098881e-05  9.4285714    
     52900   0.0011485389   0.00012042108  3.2007957e-05 -1.2382812e-06  3.4536872e-06  9.4285714    
     53000   0.0012354549   0.00011772703  3.6218959e-05  1.8027113e-05  1.663496e-05   9.4285714    
     53100   0.0012616592   0.00011593834  2.448143e-05   1.7312927e-05  2.9626511e-05  9.4285714    
     53200   0.0012624518   0.0001002606   3.0228923e-05  2.0962271e-06  2.7686866e-05  9.4285714    
     53300   0.0012726423   8.734442e-05   2.5847677e-05  2.4234901e-05  2.8970601e-05  9.4285714    
     53400   0.0012352316   0.00010656017  2.4719067e-05  4.0658686e-05  3.3816485e-05  9.4285714    
     53500   0.0012220447   0.00010705102  4.3524397e-05  1.2875792e-05  3.6373456e-05  9.4285714    
     53600   0.0012332881   8.6381619e-05  4.4789821e-05  2.7266547e-05  2.9483944e-05  9.4285714    
     53700   0.0012058403   9.3283195e-05  1.5696404e-05  2.7283569e-05  2.5249753e-05  9.4285714    
     53800   0.0011929621   0.00010314606  1.8332717e-05  8.9451196e-06  2.6856859e-05  9.4285714    
     53900   0.001193167    8.2304233e-05  3.7133185e-05  1.7978194e-05  2.8384881e-05  9.4285714    
     54000   0.0011905822   7.5910471e-05  3.2352111e-05  1.840337e-05   3.2568513e-05  9.4285714    
     54100   0.0011729381   0.00010144859  2.7976262e-05  2.850852e-05   4.3457177e-05  9.4285714    
     54200   0.001119268    0.00011092295  9.8911327e-06  2.6417591e-05  4.0466703e-05  9.4285714    
     54300   0.001058472    8.5471815e-05  7.3396262e-06  7.0569387e-06  4.1986844e-05  9.4285714    
     54400   0.0010759477   7.9859292e-05  2.8754629e-05  2.5033926e-05  3.4447675e-05  9.4285714    
     54500   0.001080739    9.2771036e-05  1.1147691e-05  1.7352124e-05  3.3877473e-05  9.4285714    
     54600   0.0010602638   9.7235426e-05 -3.0687998e-06  2.0926482e-06  4.1600041e-05  9.4285714    
     54700   0.0010369639   9.0542337e-05  1.0900041e-05  2.4574193e-05  2.7749799e-05  9.4285714    
     54800   0.0010264219   7.6684053e-05  1.1093889e-05  1.5031922e-05  2.278558e-05   9.4285714    
     54900   0.0010091897   7.6285835e-05  2.2558997e-05  9.5684551e-06  3.5005399e-05  9.4285714    
     55000   0.00090577805  0.00012129612 -4.3608311e-06 -2.2072122e-05  2.8594109e-05  9.4285714    
     55100   0.00084244235  0.00015469742 -7.0204162e-06 -4.0818371e-05  2.5675224e-05  9.4285714    
     55200   0.00089593721  0.00011067184  2.9853487e-05 -1.0965252e-06  4.4859887e-05  9.4285714    
     55300   0.0009268327   8.3913379e-05  1.9675643e-05  1.0567823e-05  3.4077378e-05  9.4285714    
     55400   0.00090107448  7.4391136e-05  1.4536099e-05 -4.8144809e-08  1.9012428e-05  9.4285714    
     55500   0.00084778253  9.940279e-05   5.736637e-06   1.1896299e-05  2.062423e-05   9.4285714    
     55600   0.00091138914  0.00011652277  1.0932361e-06  7.2385427e-06  1.2033525e-05  9.4285714    
     55700   0.00095966069  0.0001259845   7.065084e-06   9.1026689e-06  2.191515e-05   9.4285714    
     55800   0.0010336499   9.8535954e-05 -3.3602237e-06  2.4092248e-05 -1.1941591e-05  9.4285714    
     55900   0.0010010013   0.00011717236  1.7581622e-05  3.006826e-05   2.3043333e-06  9.4285714    
     56000   0.00096235915  0.00014920479 -8.2064609e-06  2.4588573e-05 -1.570798e-06   9.4285714    
     56100   0.00098106798  0.00012626408  1.2159154e-05  2.9479925e-05 -1.4088652e-05  9.4285714    
     56200   0.00097258344  0.00011550443  3.4515187e-05  4.3113343e-05  3.214936e-05   9.4285714    
     56300   0.00098662623  0.0001023699   6.9994851e-06  4.2609313e-05  1.3558408e-05  9.4285714    
     56400   0.00099116574  8.8488516e-05  2.862956e-05   3.7461384e-05  9.9856985e-06  9.4285714    
     56500   0.00099246936  9.0362845e-05  2.4931474e-05  4.6828851e-05  2.4484258e-05  9.4285714    
     56600   0.00098887913  9.1675199e-05  8.6424149e-06  4.1687324e-05  7.5463156e-06  9.4285714    
     56700   0.0010003495   7.218822e-05   2.7408192e-05  3.1411618e-05  2.3737731e-05  9.4285714    
     56800   0.0010011849   6.3985813e-05  1.2714933e-05  3.3318486e-05  3.2375332e-05  9.4285714    
     56900   0.00096907717  7.971018e-05   1.2178769e-05  2.1806176e-05  2.8223056e-05  9.4285714    
     57000   0.00095838424  8.3343148e-05  1.5006158e-05  1.6125706e-05  2.9526391e-05  9.4285714    
     57100   0.0010088435   8.2908273e-05  4.9493575e-06  1.6356506e-05  3.2777845e-05  9.4285714    
     57200   0.0012669274   7.9511283e-05  1.9453062e-05  3.1200275e-05  3.1120475e-05  9.4285714    
     57300   0.001357887    7.4006221e-05  2.6069712e-05  5.1699356e-05  2.9386073e-05  9.4285714    
     57400   0.0013405334   7.2891505e-05  2.7589828e-05  4.0145083e-05  2.6802579e-05  9.4285714    
     57500   0.0012913053   9.0883308e-05  3.4743192e-05  3.3007435e-05  2.8130198e-05  9.4285714    
     57600   0.0012831367   0.00010372316  3.1593347e-05  3.8195196e-05  2.8143916e-05  9.4285714    
     57700   0.0013049297   7.6256789e-05  2.9297293e-05  4.9926488e-05  3.0367957e-05  9.4285714    
     57800   0.0012785974   5.9121585e-05  1.7563802e-05  3.3549243e-05  4.0297652e-05  9.4285714    
     57900   0.0011702803   0.00011093245 -1.6713629e-05 -2.0690208e-05  4.9737129e-05  9.4285714    
     58000   0.0011318176   0.00010726831  1.9185033e-05  2.0620175e-05  4.5253087e-05  9.4285714    
     58100   0.0011499282   9.664922e-05   2.5761309e-05  2.4986217e-05  3.3173969e-05  9.4285714    
     58200   0.0011934552   6.8630474e-05  2.0120903e-05  2.8045043e-05  5.4322601e-05  9.4285714    
     58300   0.0011878755   6.5011699e-05  6.6874415e-05  3.7150045e-05  5.751156e-05   9.4285714    
     58400   0.0011703983   7.536385e-05   2.4248243e-05  2.3531041e-05  3.1227031e-05  9.4285714    
     58500   0.0011700888   7.5089785e-05  3.094796e-05   3.1696161e-05  4.7284682e-05  9.4285714    
     58600   0.00118918     7.067087e-05   4.2857803e-05  1.6244591e-05  5.8169981e-05  9.4285714    
     58700   0.0011960019   6.1888105e-05  2.0168193e-05  1.8885964e-05  4.1518925e-05  9.4285714    
     58800   0.0011676837   9.5875988e-05  3.7233413e-05  2.534068e-05   3.523053e-05   9.4285714    
     58900   0.0012048341   8.3287e-05     1.9284952e-05  1.4068032e-05  4.9076739e-05  9.4285714    
     59000   0.0012064292   5.3401403e-05  3.4386618e-05  2.1331333e-05  4.4688924e-05  9.4285714    
     59100   0.0010350087   0.00010312496  1.443085e-05  -2.0651743e-05  3.1325404e-05  9.4285714    
     59200   0.0008889087   0.00019497669 -2.143888e-06  -4.5633857e-05  1.8821997e-05  9.4285714    
     59300   0.00085807489  0.00025729055  2.8940347e-05 -1.684891e-05   3.4244623e-05  9.4285714    
     59400   0.00087999486  0.0002403069   1.0077463e-05  3.3410933e-07  4.1588026e-05  9.4285714    
     59500   0.00098461865  0.00011886881  1.6482928e-05  1.2688265e-05  3.8487514e-05  9.4285714    
     59600   0.0010117568   8.3952325e-05  3.9344735e-05  4.5010275e-05  4.7275294e-05  9.4285714    
     59700   0.0010290948   8.7139034e-05  1.9265824e-05  2.1558044e-05  3.9798915e-05  9.4285714    
     59800   0.00099074987  0.00011673574  2.1391744e-05  1.8536716e-05  3.6994002e-05  9.4285714    
     59900   0.00099542095  7.9597551e-05  1.9933037e-05  2.9550584e-05  4.5422057e-05  9.4285714    
     60000   0.00097486987  8.3198347e-05  6.6453889e-06  2.8588731e-05  5.6806648e-05  9.4285714    
     60100   0.00094980712  0.00010513404  2.4387096e-05  3.0610198e-05  3.4606503e-05  9.4285714    
     60200   0.00093213558  0.00010526954  2.1817667e-05  2.7723651e-05  1.3682927e-05  9.4285714    
     60300   0.00096161764  7.7267788e-05  2.2650036e-05  3.5059773e-05  5.4523962e-05  9.4285714    
     60400   0.00091962583  7.6842528e-05  3.6042924e-05  3.8299141e-05  5.7818181e-05  9.4285714    
     60500   0.00080508171  0.00010577612  3.3030945e-05  1.4942701e-05  2.2044934e-05  9.4285714    
     60600   0.00080115017  0.00011343709  2.3614477e-05  1.4797786e-05  3.540732e-05   9.4285714    
     60700   0.00076762124  0.00015293704  1.1245623e-05  2.1648814e-05  3.7841905e-05  9.4285714    
     60800   0.00076612256  0.00015129627  9.5004087e-06  2.6145509e-06 -1.2235219e-05  9.4285714    
     60900   0.0008241735   9.7501197e-05  3.901724e-05   3.1665344e-05  3.4571357e-05  9.4285714    
     61000   0.00081660889  9.0208684e-05  1.3251466e-05  3.1108264e-05  6.0529131e-05  9.4285714    
     61100   0.00077117353  0.00012175682 -1.0054285e-05  7.6074151e-06  2.6816019e-05  9.4285714    
     61200   0.00075415546  0.00012695013  1.4476903e-05  2.9136961e-05  2.5254032e-05  9.4285714    
     61300   0.00079079867  8.9794951e-05  1.5071427e-05  1.6695933e-05  3.4438293e-05  9.4285714    
     61400   0.00080143333  7.9113907e-05  4.9229461e-06  1.4751398e-05  4.6234342e-05  9.4285714    
     61500   0.00078021177  9.6557439e-05  4.2748883e-06  2.2481719e-05  4.202141e-05   9.4285714    
     61600   0.00075737273  0.00010451814  3.3050956e-06  8.6750774e-06  1.8394919e-05  9.4285714    
     61700   0.00076854138  8.6716264e-05  8.810115e-06   3.0734332e-05  2.135058e-05   9.4285714    
     61800   0.00077906576  7.7935055e-05  1.3374809e-05  2.0497439e-05  4.2986542e-05  9.4285714    
     61900   0.00076509138  9.3867088e-05  3.5563672e-06  9.952215e-08   3.7233441e-05  9.4285714    
     62000   0.00076448892  9.1317682e-05  8.8396953e-06  2.6959779e-05  2.453973e-05   9.4285714    
     62100   0.00076334582  7.4779416e-05  1.7629701e-05  2.2160182e-05  2.4952142e-05  9.4285714    
     62200   0.00072421052  9.0220203e-05  1.9438653e-05 -1.5143056e-05  8.4464267e-06  9.4285714    
     62300   0.00071225506  0.00010833742  4.8549385e-06 -1.2009541e-05  2.3421059e-05  9.4285714    
     62400   0.00071593767  0.00011155594 -4.3016418e-06  2.0817599e-05  3.8445384e-05  9.4285714    
     62500   0.00073093267  9.158907e-05   1.2489298e-05  3.2362604e-06  1.7870132e-05  9.4285714    
     62600   0.00071077854  8.126219e-05  -1.3118595e-06 -6.467466e-06   2.9986169e-05  9.4285714    
     62700   0.00070117753  8.2951225e-05 -1.9664632e-05  1.0007869e-06  3.1482793e-05  9.4285714    
     62800   0.00070257296  7.5239186e-05  4.8751954e-06 -1.7794303e-06  1.6133851e-05  9.4285714    
     62900   0.00069377593  7.1689646e-05  9.082467e-06  -7.5190878e-06  2.0251449e-05  9.4285714    
     63000   0.00067980793  7.5623143e-05  6.1150635e-06 -1.5451524e-05  2.2141521e-05  9.4285714    
     63100   0.00065201476  9.339121e-05   8.4460942e-06 -1.0790732e-05  1.9978264e-05  9.4285714    
     63200   0.00065603586  8.9724518e-05  9.6045229e-07 -2.2247139e-06  2.2912368e-05  9.4285714    
     63300   0.00065720377  5.8540217e-05  1.7006604e-05  1.0857563e-05  1.2209431e-05  9.4285714    
     63400   0.00063858172  5.8558667e-05  1.4133316e-05  1.0158518e-05 -1.7324523e-06  9.4285714    
     63500   0.0006022595   8.1254234e-05 -8.2021547e-06 -9.6033517e-06  9.64846e-06    9.4285714    
     63600   0.00059223337  7.7952724e-05 -3.228055e-06  -5.0202804e-06  1.2792289e-05  9.4285714    
     63700   0.00059180947  6.6544524e-05 -3.229809e-06   1.5525053e-05  9.7643688e-06  9.4285714    
     63800   0.00057144795  7.9371132e-05 -6.0156096e-06  1.2674208e-06  1.009701e-05   9.4285714    
     63900   0.00056191979  8.6856213e-05  3.9214287e-06 -7.2321624e-07  1.4203885e-05  9.4285714    
     64000   0.00056827519  6.9092954e-05  3.1955502e-06 -6.0101626e-06  1.4078139e-05  9.4285714    
     64100   0.0005576094   6.2080409e-05 -5.4280073e-07 -1.1652e-05     8.6032947e-07  9.4285714    
     64200   0.00053274783  7.7877308e-05  2.4518336e-06  3.5765012e-06  1.4985607e-06  9.4285714    
     64300   0.00051901599  8.4094593e-05 -2.5294954e-06 -8.1507529e-06 -8.350853e-07   9.4285714    
     64400   0.00052579621  6.4684329e-05 -3.2683632e-07  8.9787845e-06 -8.4828801e-06  9.4285714    
     64500   0.00049954325  6.8882531e-05 -2.9725199e-06  1.9559809e-05 -1.7925967e-05  9.4285714    
     64600   0.0004953665   7.5185587e-05  1.3206656e-06 -3.9854361e-06 -6.5808777e-06  9.4285714    
     64700   0.00050543634  6.9595653e-05  6.9653046e-06  4.353675e-06   4.7048202e-06  9.4285714    
     64800   0.0004983999   6.2946176e-05 -4.0253929e-07 -3.8282114e-06  1.4173823e-05  9.4285714    
     64900   0.00046882056  6.4751498e-05 -3.360218e-06  -2.371609e-05  -2.985817e-06   9.4285714    
     65000   0.00043389638  8.7274778e-05 -7.6739976e-06 -1.3322084e-05 -2.6209364e-05  9.4285714    
     65100   0.00042583551  8.5480962e-05 -1.2504745e-05 -1.2835311e-05 -4.8591107e-06  9.4285714    
     65200   0.0004225493   7.8793884e-05 -1.2360369e-05 -1.2947704e-05 -5.5404758e-06  9.4285714    
     65300   0.00042540978  7.2172802e-05 -1.0302121e-05 -3.7979533e-06 -8.1737019e-06  9.4285714    
     65400   0.0004154467   7.9922715e-05 -7.2838942e-06 -6.6635195e-06  4.1689079e-06  9.4285714    
     65500   0.0004155235   7.6030805e-05 -1.2101301e-05 -3.0642718e-06  2.3415274e-06  9.4285714    
     65600   0.0004158673   6.809178e-05  -1.2798574e-05 -1.39566e-06    1.3590504e-06  9.4285714    
     65700   0.00041395971  5.9465972e-05 -4.7149154e-06 -9.0424126e-06  9.8604167e-07  9.4285714    
     65800   0.00040032267  5.961073e-05  -8.7795455e-06 -7.4468947e-06 -6.2588072e-06  9.4285714    
     65900   0.00037249545  7.3705216e-05 -8.2956831e-06 -1.6482135e-05 -4.5736534e-06  9.4285714    
     66000   0.00036828531  6.469949e-05  -5.3216583e-06 -2.0193716e-05  2.1366002e-07  9.4285714    
     66100   0.00036981292  5.6420311e-05 -8.7182314e-06 -8.7465087e-06  4.5248152e-06  9.4285714    
     66200   0.00035514181  6.8186882e-05 -8.997541e-06  -9.367927e-06   5.4937411e-06  9.4285714    
     66300   0.00036138946  6.1126959e-05 -7.2532175e-06 -1.4281318e-05  2.4675798e-06  9.4285714    
     66400   0.00034325392  5.3584394e-05 -1.3348683e-05 -4.3628314e-06  4.1723419e-06  9.4285714    
     66500   0.00034040792  4.892633e-05  -9.6178534e-06 -1.2711438e-05 -4.9619173e-08  9.4285714    
     66600   0.00033870009  4.8369708e-05 -2.50342e-06   -1.1052775e-05  6.3055902e-06  9.4285714    
     66700   0.00032786186  5.5035757e-05 -6.9896184e-06 -1.5802885e-05  7.6615454e-06  9.4285714    
     66800   0.00032876405  4.7080961e-05 -5.0593487e-06 -1.8715235e-05 -3.0627867e-06  9.4285714    
     66900   0.00032970412  3.9376633e-05 -5.8316919e-07  8.064379e-06   3.5665408e-06  9.4285714    
     67000   0.00031143254  4.8989221e-05 -7.8587186e-06 -1.8552181e-05  5.2865854e-06  9.4285714    
     67100   0.00030357173  5.4083932e-05 -1.0445951e-05 -3.04618e-05    3.6479227e-06  9.4285714    
     67200   0.00032168964  3.1683725e-05 -9.0892623e-06  6.5283804e-07  8.1391753e-06  9.4285714    
     67300   0.00031687163  3.074665e-05  -1.5876984e-05 -1.0645038e-05  6.2142977e-06  9.4285714    
     67400   0.00030487533  4.3458633e-05 -1.3672536e-05 -1.546705e-05   8.1996155e-06  9.4285714    
     67500   0.00030603286  3.816875e-05  -1.2200458e-05 -2.7791147e-07  9.2312783e-06  9.4285714    
     67600   0.00030156922  2.9717569e-05 -1.8399335e-05 -6.4184812e-06  2.9007828e-06  9.4285714    
     67700   0.00028949545  3.3775637e-05 -2.1015864e-05 -8.3783664e-06  5.08419e-06    9.4285714    
     67800   0.00029090467  3.3967055e-05 -1.3328548e-05 -9.5542715e-06  8.2360742e-06  9.4285714    
     67900   0.00029144516  3.3011468e-05 -4.5545851e-06 -1.1182336e-05  6.0263951e-06  9.4285714    
     68000   0.00029198892  3.0278669e-05 -4.6910722e-06 -6.069764e-06  -2.2666982e-06  9.4285714    
     68100   0.00028645427  3.1924932e-05 -2.7659845e-06 -9.5118536e-06  2.8278491e-06  9.4285714    
     68200   0.00027993591  3.4995677e-05 -6.1790131e-07 -1.329345e-05  -6.713336e-08   9.4285714    
     68300   0.00028225418  3.3535289e-05 -2.2467293e-06 -1.0928226e-05  2.8707028e-06  9.4285714    
     68400   0.0002853715   2.52843e-05   -2.0697021e-06 -8.40149e-06    1.0120944e-05  9.4285714    
     68500   0.00026145785  3.0101411e-05 -2.5390582e-06 -1.0208376e-05  4.3155252e-06  9.4285714    
     68600   0.00023979922  4.3476865e-05 -2.6091245e-06 -4.6988547e-06 -1.3178914e-06  9.4285714    
     68700   0.00023152198  5.6347604e-05 -1.3370576e-06 -5.4259522e-06 -2.1650685e-08  9.4285714    
     68800   0.00021821149  6.3177172e-05 -6.9452766e-06 -1.5000647e-05 -1.0961051e-05  9.4285714    
     68900   0.00021729605  5.1011798e-05 -5.26867e-06   -1.7330698e-06 -1.2853838e-05  9.4285714    
     69000   0.00021989487  4.3925649e-05  1.9208264e-06 -1.0477886e-06  7.7390505e-07  9.4285714    
     69100   0.00022741949  3.3194819e-05 -3.8137394e-06 -2.0226523e-05 -7.7381729e-06  9.4285714    
     69200   0.00022012698  3.02054e-05   -6.4886951e-06 -1.0420988e-05 -8.8123825e-06  9.4285714    
     69300   0.00020699382  3.5870088e-05 -6.8461125e-06 -1.5170482e-05 -1.1410692e-05  9.4285714    
     69400   0.00019801396  4.2984692e-05 -5.2021471e-06 -9.0608403e-06 -1.4594019e-05  9.4285714    
     69500   0.00019956546  3.9829162e-05 -1.34352e-06    7.0389113e-09 -6.3189562e-07  9.4285714    
     69600   0.00019810574  3.505322e-05  -4.3717045e-06 -1.9595784e-06 -5.7431503e-06  9.4285714    
     69700   0.00018826784  3.7665641e-05 -6.3177864e-06 -2.8572814e-06 -9.6487459e-06  9.4285714    
     69800   0.00018051816  4.1608559e-05 -4.17691e-06   -5.1943518e-06 -3.309197e-06   9.4285714    
     69900   0.00018093075  3.9172695e-05 -1.7033929e-06 -5.7836444e-06 -1.1158123e-05  9.4285714    
     70000   0.00018655692  3.0986336e-05  1.5864867e-06 -3.6668937e-06 -1.1546216e-05  9.4285714    
     70100   0.00017840099  3.386909e-05   1.7187947e-06 -4.3997628e-06 -1.0331009e-05  9.4285714    
     70200   0.00017330406  3.7391226e-05  1.0671935e-06 -5.4177157e-06 -1.3278264e-05  9.4285714    
     70300   0.00017626344  3.1774516e-05 -1.5465549e-06 -4.3279722e-06 -8.1695302e-06  9.4285714    
     70400   0.00017731909  2.6780039e-05 -5.5431874e-06 -6.1125252e-06 -5.6960751e-06  9.4285714    
     70500   0.00017145407  2.9998364e-05 -6.7839282e-06 -1.2855801e-05 -7.3234337e-06  9.4285714    
     70600   0.00017008671  3.089053e-05  -7.9850985e-06 -1.8146946e-05 -4.2886856e-06  9.4285714    
     70700   0.00017167672  2.680987e-05  -7.6108391e-06 -1.51022e-05   -4.6825778e-06  9.4285714    
     70800   0.00016690705  2.5692739e-05 -8.5423316e-06 -1.4908128e-05 -5.0968148e-06  9.4285714    
     70900   0.00016288846  2.689449e-05  -9.3281857e-06 -1.7817037e-05 -1.9521566e-06  9.4285714    
     71000   0.00015982348  2.865151e-05  -8.4453721e-06 -1.2138875e-05 -2.6493875e-06  9.4285714    
     71100   0.0001624245   2.5277754e-05 -9.6061161e-06 -7.9247289e-06 -2.1413722e-06  9.4285714    
     71200   0.00016744667  1.9497382e-05 -9.2406491e-06 -4.5614703e-06  8.8057668e-07  9.4285714    
     71300   0.00016245927  2.2600691e-05 -8.745416e-06  -4.7579805e-06  3.4103911e-08  9.4285714    
     71400   0.00014638849  2.5330229e-05 -1.0834354e-05 -5.9995869e-06 -5.5307006e-06  9.4285714    
     71500   0.00014308856  2.537709e-05  -1.8940641e-05 -1.3463051e-06 -6.4089794e-06  9.4285714    
     71600   0.00014758583  2.2074235e-05 -1.2451816e-05 -5.0434199e-06  2.3655652e-06  9.4285714    
     71700   0.00014066447  2.5797696e-05 -5.0978991e-06 -1.0782389e-05 -8.4396629e-06  9.4285714    
     71800   0.00014081398  2.2174017e-05 -1.592824e-05  -8.2502019e-06 -9.1373473e-06  9.4285714    
     71900   0.000141451    1.9033512e-05 -8.7538845e-06 -1.1530708e-05 -1.3483858e-06  9.4285714    
     72000   0.00013891897  1.9870692e-05 -1.036473e-05  -1.489624e-05  -8.3664527e-06  9.4285714    
     72100   0.00013690718  2.0837297e-05 -1.4630232e-05 -1.4813213e-05 -2.242169e-06   9.4285714    
     72200   0.00013408141  1.8970097e-05 -3.2156105e-06 -1.4702909e-05 -7.6797381e-06  9.4285714    
     72300   0.00013188526  1.8495903e-05 -5.7528459e-06 -1.0248544e-05 -1.5672197e-05  9.4285714    
     72400   0.00013022724  2.0202265e-05 -6.9508425e-06 -7.7655273e-06 -3.7168979e-06  9.4285714    
     72500   0.00012169253  2.5739922e-05 -3.1080333e-06 -8.4911383e-06 -1.8328024e-05  9.4285714    
     72600   0.00012320539  1.9428678e-05 -8.7198151e-06 -8.0250271e-06 -1.4160086e-05  9.4285714    
     72700   0.00011965881  1.8582723e-05 -2.0226136e-06 -6.9064283e-06 -1.0254323e-05  9.4285714    
     72800   0.00011290453  2.0998373e-05 -4.8711191e-06 -5.3093989e-06 -1.6609706e-05  9.4285714    
     72900   9.6792147e-05  2.4062832e-05 -1.7883498e-05 -7.741141e-06  -1.2679433e-05  9.4285714    
     73000   9.2553738e-05  2.4448482e-05 -1.3493216e-05 -1.0483107e-05 -1.929954e-05   9.4285714    
     73100   8.7211356e-05  2.8553184e-05 -8.4983968e-06 -1.0923523e-05 -1.2112557e-05  9.4285714    
     73200   8.5411175e-05  3.0992688e-05 -1.3013012e-05 -1.2974474e-05 -1.0327573e-05  9.4285714    
     73300   8.5233897e-05  2.8143317e-05 -6.7528392e-06 -9.3292976e-06 -1.0508839e-05  9.4285714    
     73400   8.8380075e-05  2.2205773e-05 -8.2946619e-06 -6.3953264e-06 -4.2220937e-06  9.4285714    
     73500   8.6146162e-05  2.0229765e-05 -1.1013839e-05 -9.6106858e-06 -1.2170394e-05  9.4285714    
     73600   8.1014392e-05  2.3641383e-05 -6.2414308e-06 -1.2792897e-05 -1.1393243e-05  9.4285714    
     73700   8.2837676e-05  2.3722663e-05 -9.06387e-06   -1.4674636e-05 -5.824298e-06   9.4285714    
     73800   8.4054407e-05  2.1273146e-05 -1.1441577e-05 -1.1117326e-05 -8.5336031e-06  9.4285714    
     73900   8.0454449e-05  2.0298305e-05 -1.1213995e-05 -1.1468077e-05 -8.7410425e-06  9.4285714    
     74000   8.0199349e-05  1.9456031e-05 -1.0688237e-05 -1.2191018e-05 -5.8853149e-06  9.4285714    
     74100   8.1510649e-05  1.9099093e-05 -6.4240813e-06 -6.4760122e-06 -6.917367e-06   9.4285714    
     74200   7.8577788e-05  1.8814897e-05 -4.3241018e-06 -5.6048392e-06 -6.7522751e-06  9.4285714    
     74300   7.5438891e-05  1.7110374e-05 -6.3109192e-06 -1.3236994e-05 -6.6598713e-06  9.4285714    
     74400   6.9666331e-05  1.7600185e-05 -9.2908419e-06 -1.5639987e-05 -8.3370866e-06  9.4285714    
     74500   6.6730533e-05  1.8154505e-05 -1.2718949e-05 -1.1073012e-05 -9.4867906e-06  9.4285714    
     74600   6.7666471e-05  1.7871582e-05 -1.06715e-05   -7.6295894e-06 -1.1613423e-05  9.4285714    
     74700   6.7200892e-05  1.7970862e-05 -5.3130508e-06 -5.836303e-06  -1.0378167e-05  9.4285714    
     74800   6.3004787e-05  1.8057909e-05 -8.1020283e-06 -5.5960407e-06 -9.5354626e-06  9.4285714    
     74900   5.9962099e-05  1.734347e-05  -1.2001119e-05 -9.0462324e-06 -1.2466943e-05  9.4285714    
     75000   5.6280629e-05  1.7125793e-05 -9.9062929e-06 -1.0715012e-05 -1.1693782e-05  9.4285714    
     75100   5.2553608e-05  1.8201697e-05 -1.2074372e-05 -1.1354651e-05 -1.2136431e-05  9.4285714    
     75200   5.2530536e-05  1.8478421e-05 -1.3279775e-05 -1.260689e-05  -1.4034711e-05  9.4285714    
     75300   5.5053145e-05  1.6362568e-05 -9.4319849e-06 -8.8034221e-06 -1.2361668e-05  9.4285714    
     75400   5.5617584e-05  1.4457104e-05 -1.0767679e-05 -7.4703334e-06 -1.2028223e-05  9.4285714    
     75500   5.2882691e-05  1.4693784e-05 -1.3185895e-05 -1.2225959e-05 -1.3360869e-05  9.4285714    
     75600   5.0395168e-05  1.4648629e-05 -1.2715821e-05 -1.1270312e-05 -1.4187762e-05  9.4285714    
     75700   4.8773504e-05  1.4725229e-05 -1.1415787e-05 -6.6179614e-06 -1.4249789e-05  9.4285714    
     75800   4.7652717e-05  1.535587e-05  -1.0690379e-05 -8.9511757e-06 -1.4766541e-05  9.4285714    
     75900   4.5100544e-05  1.566487e-05  -1.096862e-05  -7.8813042e-06 -1.4292054e-05  9.4285714    
     76000   4.4292436e-05  1.4557283e-05 -9.3525781e-06 -6.6759895e-06 -1.2069953e-05  9.4285714    
     76100   4.1500937e-05  1.3590924e-05 -9.2095666e-06 -7.60287e-06   -1.2703605e-05  9.4285714    
     76200   3.9091723e-05  1.5560836e-05 -1.2134941e-05 -8.454926e-06  -1.404228e-05   9.4285714    
     76300   3.6033796e-05  1.7665717e-05 -1.1322221e-05 -1.1763749e-05 -1.3823225e-05  9.4285714    
     76400   3.5898259e-05  1.6235047e-05 -7.3272301e-06 -9.1012259e-06 -1.3240333e-05  9.4285714    
     76500   3.7047107e-05  1.3038305e-05 -6.2921959e-06 -6.6760533e-06 -1.4432015e-05  9.4285714    
     76600   3.6869307e-05  1.1501198e-05 -6.0606139e-06 -1.0644093e-05 -1.418974e-05   9.4285714    
     76700   3.4423898e-05  1.213938e-05  -8.6909841e-06 -1.0996816e-05 -1.3940004e-05  9.4285714    
     76800   3.3578255e-05  1.1502588e-05 -1.0434078e-05 -1.1121622e-05 -1.3879647e-05  9.4285714    
     76900   3.3363806e-05  1.0617195e-05 -7.9479418e-06 -1.0866786e-05 -1.3668488e-05  9.4285714    
     77000   3.2593546e-05  1.0769657e-05 -6.2681604e-06 -7.3824139e-06 -1.3326072e-05  9.4285714    
     77100   3.1277155e-05  1.1324001e-05 -5.8009654e-06 -6.8544303e-06 -1.2431245e-05  9.4285714    
     77200   2.9180009e-05  1.116972e-05  -4.573741e-06  -1.360818e-06  -1.1986801e-05  9.4285714    
     77300   2.7493695e-05  1.0297769e-05 -6.5046858e-06  1.0985795e-06 -1.2855019e-05  9.4285714    
     77400   2.5328456e-05  1.0423371e-05 -9.385858e-06  -4.4359962e-06 -1.3331991e-05  9.4285714    
     77500   2.4119369e-05  1.0958896e-05 -8.9713612e-06 -4.4206615e-06 -1.1345133e-05  9.4285714    
     77600   2.3832777e-05  1.0887376e-05 -8.7139261e-06 -6.0608839e-06 -1.0320051e-05  9.4285714    
     77700   2.3633358e-05  9.7330621e-06 -7.739753e-06  -7.9944653e-06 -1.0813802e-05  9.4285714    
     77800   2.1717428e-05  9.8674897e-06 -7.6274308e-06 -6.8846866e-06 -1.0176048e-05  9.4285714    
     77900   2.0469792e-05  1.0196164e-05 -9.5926616e-06 -9.9870177e-06 -9.8206015e-06  9.4285714    
     78000   2.2198051e-05  7.9210657e-06 -7.5092909e-06 -9.0987735e-06 -8.506451e-06   9.4285714    
     78100   2.3058206e-05  6.0836982e-06 -4.455436e-06  -6.1823624e-06 -7.7213408e-06  9.4285714    
     78200   2.1184335e-05  7.0398856e-06 -4.5114493e-06 -7.8044264e-06 -8.2900931e-06  9.4285714    
     78300   2.0152802e-05  7.774014e-06  -3.7185717e-06 -7.9452547e-06 -7.7799676e-06  9.4285714    
     78400   2.1019114e-05  6.5814292e-06 -3.2777568e-06 -6.7915761e-06 -7.6075936e-06  9.4285714    
     78500   2.0585418e-05  6.1074857e-06 -3.391965e-06  -6.389827e-06  -8.1106823e-06  9.4285714    
     78600   1.9138022e-05  6.552183e-06  -3.69167e-06   -7.222311e-06  -8.569928e-06   9.4285714    
     78700   1.9250951e-05  5.9396522e-06 -4.1833052e-06 -6.1022234e-06 -8.7478814e-06  9.4285714    
     78800   1.9645285e-05  4.9713794e-06 -3.0605994e-06 -4.2115414e-06 -8.6021645e-06  9.4285714    
     78900   1.8642721e-05  5.2863358e-06 -3.4483922e-06 -6.8072529e-06 -8.6836971e-06  9.4285714    
     79000   1.7662754e-05  6.0211564e-06 -4.8037796e-06 -7.1641442e-06 -9.4254126e-06  9.4285714    
     79100   1.7619335e-05  5.7689199e-06 -4.323439e-06  -4.0264969e-06 -1.0188127e-05  9.4285714    
     79200   1.7735979e-05  5.0232672e-06 -3.1621885e-06 -2.8581442e-06 -1.0714139e-05  9.4285714    
     79300   1.6966625e-05  5.2980171e-06 -3.1462402e-06 -2.2303878e-06 -1.0520503e-05  9.4285714    
     79400   1.5965537e-05  5.7438961e-06 -4.0967347e-06 -2.3876371e-06 -1.0038235e-05  9.4285714    
     79500   1.5970296e-05  5.1674008e-06 -3.6580522e-06 -1.0413368e-06 -1.0746037e-05  9.4285714    
     79600   1.5950083e-05  5.110564e-06  -4.775551e-06  -2.0066417e-06 -1.1211119e-05  9.4285714    
     79700   1.4829027e-05  5.8126655e-06 -5.8342724e-06 -4.2041312e-06 -1.1599615e-05  9.4285714    
     79800   1.4442421e-05  5.4240701e-06 -4.0767464e-06 -2.5458859e-06 -1.1852547e-05  9.4285714    
     79900   1.4431752e-05  4.7845378e-06 -6.0377615e-06 -4.119721e-06  -1.1685178e-05  9.4285714    
     80000   1.4150157e-05  4.7953237e-06 -7.5183305e-06 -5.0557289e-06 -1.1450227e-05  9.4285714    
     80100   1.3939165e-05  4.907923e-06  -5.9579418e-06 -3.2289859e-06 -1.0467961e-05  9.4285714    
     80200   1.4593553e-05  4.5225469e-06 -5.8132922e-06 -4.1772263e-06 -1.0223885e-05  9.4285714    
     80300   1.4361391e-05  4.3601699e-06 -5.36867e-06   -4.3943466e-06 -1.0507415e-05  9.4285714    
     80400   1.3566188e-05  4.5281553e-06 -5.5783978e-06 -4.3012549e-06 -1.062439e-05   9.4285714    
     80500   1.295053e-05   4.6500404e-06 -5.9947177e-06 -5.5665356e-06 -1.1200365e-05  9.4285714    
     80600   1.3238098e-05  3.9923314e-06 -3.2804991e-06 -4.1356141e-06 -1.0992409e-05  9.4285714    
     80700   1.3130018e-05  3.752821e-06  -2.8851885e-06 -4.1699431e-06 -1.0568075e-05  9.4285714    
     80800   1.2341584e-05  4.2339044e-06 -4.2460417e-06 -6.125477e-06  -1.0566106e-05  9.4285714    
     80900   1.1771341e-05  4.4468007e-06 -3.886333e-06  -4.9757672e-06 -1.0421994e-05  9.4285714    
     81000   1.1796764e-05  4.0966443e-06 -4.4074003e-06 -4.7468688e-06 -1.0713543e-05  9.4285714    
     81100   1.1748401e-05  4.0610974e-06 -4.5742132e-06 -5.0364244e-06 -1.0924612e-05  9.4285714    
     81200   1.1824584e-05  4.1803788e-06 -4.1316428e-06 -4.3837821e-06 -1.0708911e-05  9.4285714    
     81300   1.2517032e-05  3.8029271e-06 -4.4171805e-06 -4.6523043e-06 -1.0327551e-05  9.4285714    
     81400   1.3047692e-05  3.5220775e-06 -3.8688977e-06 -3.6980428e-06 -9.8705149e-06  9.4285714    
     81500   1.2772127e-05  3.6101564e-06 -3.180215e-06  -3.2408196e-06 -1.0642578e-05  9.4285714    
     81600   1.2350954e-05  3.5973529e-06 -3.6681863e-06 -4.2839693e-06 -1.1462966e-05  9.4285714    
     81700   1.2180297e-05  3.4476623e-06 -4.2679325e-06 -4.157795e-06  -1.1272623e-05  9.4285714    
     81800   1.2086614e-05  3.5532245e-06 -4.6282045e-06 -4.1005625e-06 -1.1368608e-05  9.4285714    
     81900   1.2269228e-05  3.5539383e-06 -3.9094288e-06 -3.9962421e-06 -1.0620268e-05  9.4285714    
     82000   1.2351229e-05  3.4432117e-06 -3.0323319e-06 -3.9374448e-06 -1.0076635e-05  9.4285714    
     82100   1.2165688e-05  3.5565136e-06 -3.5138928e-06 -4.5726773e-06 -1.0174591e-05  9.4285714    
     82200   1.1648326e-05  3.8717766e-06 -4.8085715e-06 -4.8887439e-06 -9.954566e-06   9.4285714    
     82300   1.1286891e-05  3.8384748e-06 -6.4450051e-06 -5.417144e-06  -1.0200166e-05  9.4285714    
     82400   1.1481905e-05  3.4208104e-06 -6.5922892e-06 -5.804062e-06  -1.0567272e-05  9.4285714    
     82500   1.1312866e-05  3.4287405e-06 -5.9498779e-06 -5.5827217e-06 -1.0945083e-05  9.4285714    
     82600   1.0865476e-05  3.6198508e-06 -5.7585012e-06 -5.8593181e-06 -1.1538578e-05  9.4285714    
     82700   1.0449939e-05  3.4723667e-06 -5.4049194e-06 -6.2708276e-06 -1.1469917e-05  9.4285714    
     82800   9.7367561e-06  3.5515014e-06 -5.6210301e-06 -6.2349571e-06 -1.1365332e-05  9.4285714    
     82900   9.1728436e-06  3.9481925e-06 -6.9405037e-06 -6.7077636e-06 -1.1786222e-05  9.4285714    
     83000   8.872492e-06   4.1510854e-06 -7.6815271e-06 -6.8174274e-06 -1.2030685e-05  9.4285714    
     83100   9.0260139e-06  3.8565958e-06 -7.5184405e-06 -6.0982911e-06 -1.2802323e-05  9.4285714    
     83200   9.0150152e-06  3.7543897e-06 -7.3146684e-06 -5.7061996e-06 -1.3785446e-05  9.4285714    
     83300   8.7153105e-06  3.986997e-06  -7.1599801e-06 -5.5027689e-06 -1.4010464e-05  9.4285714    
     83400   8.640742e-06   3.9261186e-06 -6.9228141e-06 -5.8570465e-06 -1.3956106e-05  9.4285714    
     83500   8.4184762e-06  3.7151329e-06 -6.743243e-06  -6.5079945e-06 -1.3852858e-05  9.4285714    
     83600   7.7476714e-06  3.8732742e-06 -6.847362e-06  -6.7148187e-06 -1.3732759e-05  9.4285714    
     83700   7.2793201e-06  4.0580248e-06 -6.6654039e-06 -6.5295525e-06 -1.3757098e-05  9.4285714    
     83800   7.0927428e-06  4.0216429e-06 -6.5835091e-06 -5.850562e-06  -1.3310026e-05  9.4285714    
     83900   6.635644e-06   4.0132099e-06 -6.8737352e-06 -5.3999561e-06 -1.3130689e-05  9.4285714    
     84000   6.266867e-06   3.9606181e-06 -7.258558e-06  -5.660739e-06  -1.3322076e-05  9.4285714    
     84100   5.8819926e-06  3.9592982e-06 -7.3237899e-06 -6.5076216e-06 -1.3009781e-05  9.4285714    
     84200   5.205511e-06   4.1650602e-06 -7.1018626e-06 -7.0082893e-06 -1.2884247e-05  9.4285714    
     84300   5.0698595e-06  3.9766019e-06 -7.4460262e-06 -7.2008843e-06 -1.315328e-05   9.4285714    
     84400   5.0733619e-06  3.7275725e-06 -8.038915e-06  -7.2831024e-06 -1.3209354e-05  9.4285714    
     84500   4.976475e-06   3.6769157e-06 -7.4437874e-06 -7.0955419e-06 -1.3225841e-05  9.4285714    
     84600   4.7397349e-06  3.6920705e-06 -7.0896577e-06 -7.1621934e-06 -1.2987221e-05  9.4285714    
     84700   4.645102e-06   3.4730675e-06 -7.2381309e-06 -7.0328374e-06 -1.2994762e-05  9.4285714    
     84800   4.5047487e-06  3.3989241e-06 -6.6791115e-06 -6.463224e-06  -1.2657363e-05  9.4285714    
     84900   4.4009796e-06  3.3863996e-06 -6.5975101e-06 -6.4190843e-06 -1.2271788e-05  9.4285714    
     85000   4.3650026e-06  3.1545876e-06 -6.736964e-06  -6.5125018e-06 -1.2192355e-05  9.4285714    
     85100   4.1356471e-06  3.035659e-06  -6.7963195e-06 -6.6012509e-06 -1.1899008e-05  9.4285714    
     85200   4.0667284e-06  2.9405615e-06 -6.7958407e-06 -6.8314096e-06 -1.127168e-05   9.4285714    
     85300   4.0649391e-06  2.875693e-06  -6.4493084e-06 -6.504695e-06  -1.0577972e-05  9.4285714    
     85400   3.9776031e-06  2.7798641e-06 -6.2987841e-06 -6.2346823e-06 -1.0486398e-05  9.4285714    
     85500   3.842311e-06   2.5950595e-06 -6.3349782e-06 -6.2950638e-06 -1.0479391e-05  9.4285714    
     85600   3.6739492e-06  2.5310005e-06 -6.222854e-06  -6.230603e-06  -1.0001709e-05  9.4285714    
     85700   3.5205039e-06  2.5493343e-06 -6.2413205e-06 -6.0776561e-06 -9.5638752e-06  9.4285714    
     85800   3.3614787e-06  2.510214e-06  -6.4633094e-06 -5.6589075e-06 -9.7001371e-06  9.4285714    
     85900   3.2523712e-06  2.4733816e-06 -6.7222931e-06 -5.3038976e-06 -9.894652e-06   9.4285714    
     86000   3.1830383e-06  2.4588682e-06 -6.6557236e-06 -5.312044e-06  -9.9050946e-06  9.4285714    
     86100   3.1685012e-06  2.3619285e-06 -6.3543844e-06 -4.9424638e-06 -9.9270844e-06  9.4285714    
     86200   3.1572833e-06  2.2527299e-06 -6.1343302e-06 -4.8566352e-06 -9.8808231e-06  9.4285714    
     86300   3.1161692e-06  2.2226232e-06 -5.810287e-06  -5.1383924e-06 -9.7380454e-06  9.4285714    
     86400   3.1156957e-06  2.2099847e-06 -5.3527523e-06 -5.1000665e-06 -9.5459445e-06  9.4285714    
     86500   3.0712772e-06  2.2354464e-06 -4.9434897e-06 -5.0647482e-06 -9.0652828e-06  9.4285714    
     86600   3.0169532e-06  2.2250515e-06 -4.6624682e-06 -4.9883211e-06 -8.7967773e-06  9.4285714    
     86700   2.9771725e-06  2.1413127e-06 -4.4960295e-06 -4.7954899e-06 -8.8704986e-06  9.4285714    
     86800   2.9444109e-06  2.066493e-06  -4.2325701e-06 -4.2815487e-06 -8.8943574e-06  9.4285714    
     86900   3.0540358e-06  2.0049503e-06 -4.2195874e-06 -3.8081677e-06 -9.051567e-06   9.4285714    
     87000   3.1574784e-06  2.0440461e-06 -4.5900923e-06 -4.0265351e-06 -9.2154223e-06  9.4285714    
     87100   3.1584667e-06  2.1302185e-06 -4.8007035e-06 -4.3097828e-06 -9.1637025e-06  9.4285714    
     87200   3.2153277e-06  2.0827176e-06 -4.9498717e-06 -4.5659276e-06 -9.1535013e-06  9.4285714    
     87300   3.2349359e-06  2.0380146e-06 -5.0121718e-06 -4.6300025e-06 -9.2525711e-06  9.4285714    
     87400   3.2476625e-06  2.0897084e-06 -4.8300659e-06 -4.0705594e-06 -9.4283272e-06  9.4285714    
     87500   3.3452261e-06  2.0897192e-06 -4.7002489e-06 -3.7090258e-06 -9.695716e-06   9.4285714    
     87600   3.4829341e-06  2.0447657e-06 -4.8076253e-06 -3.9025944e-06 -9.8871649e-06  9.4285714    
     87700   3.5644398e-06  2.0847831e-06 -4.9992918e-06 -4.1447393e-06 -1.0057258e-05  9.4285714    
     87800   3.5755858e-06  2.1809978e-06 -5.0524701e-06 -4.2968831e-06 -1.0249773e-05  9.4285714    
     87900   3.5827417e-06  2.2178871e-06 -4.9742252e-06 -4.2056159e-06 -1.0488319e-05  9.4285714    
     88000   3.5983317e-06  2.2324271e-06 -5.1261952e-06 -4.0966981e-06 -1.0784184e-05  9.4285714    
     88100   3.5478234e-06  2.3020931e-06 -5.4380455e-06 -4.260319e-06  -1.0973819e-05  9.4285714    
     88200   3.4600846e-06  2.361387e-06  -5.5000975e-06 -4.7521727e-06 -1.111842e-05   9.4285714    
     88300   3.3783888e-06  2.3879627e-06 -5.2765555e-06 -5.0180527e-06 -1.1210775e-05  9.4285714    
     88400   3.2304317e-06  2.4882863e-06 -4.9401278e-06 -4.9338557e-06 -1.1352592e-05  9.4285714    
     88500   3.0825361e-06  2.6266722e-06 -4.8610628e-06 -4.9295941e-06 -1.1676188e-05  9.4285714    
     88600   3.0308521e-06  2.7143461e-06 -4.9736739e-06 -4.7812741e-06 -1.196257e-05   9.4285714    
     88700   3.0215162e-06  2.7884178e-06 -5.1341352e-06 -4.5845352e-06 -1.2143931e-05  9.4285714    
     88800   2.9871233e-06  2.839677e-06  -5.4324177e-06 -4.5022397e-06 -1.2333679e-05  9.4285714    
     88900   2.9658756e-06  2.8218317e-06 -5.4670285e-06 -4.1525816e-06 -1.2537607e-05  9.4285714    
     89000   2.972996e-06   2.7955249e-06 -5.373916e-06  -3.957391e-06  -1.2722767e-05  9.4285714    
     89100   3.0330788e-06  2.8096918e-06 -5.5045431e-06 -3.9641016e-06 -1.2793786e-05  9.4285714    
     89200   3.1342961e-06  2.8586854e-06 -5.3779916e-06 -3.9369851e-06 -1.2749614e-05  9.4285714    
     89300   3.2622624e-06  2.8454657e-06 -5.2134625e-06 -4.2324729e-06 -1.2758065e-05  9.4285714    
     89400   3.3145108e-06  2.7595022e-06 -5.0856372e-06 -4.4854353e-06 -1.2812831e-05  9.4285714    
     89500   3.223677e-06   2.7294053e-06 -4.8733834e-06 -4.5852184e-06 -1.2858737e-05  9.4285714    
     89600   3.1024961e-06  2.7779441e-06 -5.116179e-06  -4.7184418e-06 -1.2836405e-05  9.4285714    
     89700   3.0642617e-06  2.8391497e-06 -5.3041429e-06 -4.6905703e-06 -1.2581992e-05  9.4285714    
     89800   3.0769392e-06  2.8546291e-06 -5.2940618e-06 -4.5508344e-06 -1.2276125e-05  9.4285714    
     89900   3.0820795e-06  2.7755613e-06 -5.4688232e-06 -4.4673887e-06 -1.2236135e-05  9.4285714    
     90000   3.0181658e-06  2.6957943e-06 -5.5307321e-06 -4.3983472e-06 -1.2317364e-05  9.4285714    
     90100   2.9364882e-06  2.6720117e-06 -5.5727496e-06 -4.3128731e-06 -1.2280814e-05  9.4285714    
     90200   2.876674e-06   2.6171656e-06 -5.8230489e-06 -4.2577041e-06 -1.2180231e-05  9.4285714    
     90300   2.6573764e-06  2.5827601e-06 -6.4874157e-06 -4.4119992e-06 -1.2046907e-05  9.4285714    
     90400   2.3153977e-06  2.6576913e-06 -7.3254867e-06 -4.853755e-06  -1.1990464e-05  9.4285714    
     90500   2.1522536e-06  2.7729805e-06 -7.6564777e-06 -5.0453713e-06 -1.1975983e-05  9.4285714    
     90600   2.211894e-06   2.781402e-06  -7.435588e-06  -5.082527e-06  -1.1687903e-05  9.4285714    
     90700   2.2631077e-06  2.6611974e-06 -7.2382462e-06 -5.0229743e-06 -1.1440952e-05  9.4285714    
     90800   2.1910011e-06  2.5140872e-06 -7.0546272e-06 -4.7683915e-06 -1.1387816e-05  9.4285714    
     90900   2.0850427e-06  2.4600667e-06 -6.7026649e-06 -4.57192e-06   -1.1216581e-05  9.4285714    
     91000   2.0082007e-06  2.474004e-06  -6.6050083e-06 -4.3364207e-06 -1.0949905e-05  9.4285714    
     91100   2.0391187e-06  2.4345465e-06 -6.4821494e-06 -4.0953903e-06 -1.0696937e-05  9.4285714    
     91200   2.0467297e-06  2.4361907e-06 -6.3548368e-06 -4.1551148e-06 -1.0467072e-05  9.4285714    
     91300   1.8744759e-06  2.5676599e-06 -6.7504311e-06 -4.251544e-06  -1.0426633e-05  9.4285714    
     91400   1.7458615e-06  2.5852344e-06 -6.825469e-06  -4.1403641e-06 -1.0412458e-05  9.4285714    
     91500   1.7233686e-06  2.4668221e-06 -6.3485654e-06 -4.0852553e-06 -1.0493934e-05  9.4285714    
     91600   1.5507557e-06  2.4634242e-06 -6.2228984e-06 -4.1250104e-06 -1.0661277e-05  9.4285714    
     91700   1.3681997e-06  2.5295804e-06 -6.0267186e-06 -4.0604765e-06 -1.0606358e-05  9.4285714    
     91800   1.3310007e-06  2.5302048e-06 -5.8067135e-06 -3.9739912e-06 -1.0636899e-05  9.4285714    
     91900   1.2688332e-06  2.5245228e-06 -5.9332041e-06 -4.0482189e-06 -1.0819521e-05  9.4285714    
     92000   1.208559e-06   2.4954939e-06 -5.9553473e-06 -4.2136389e-06 -1.0997147e-05  9.4285714    
     92100   1.2287576e-06  2.4421245e-06 -6.0987276e-06 -4.3186369e-06 -1.1263998e-05  9.4285714    
     92200   1.2592409e-06  2.4201331e-06 -6.1223156e-06 -4.264099e-06  -1.1332339e-05  9.4285714    
     92300   1.2377684e-06  2.4410314e-06 -5.8492784e-06 -4.2805833e-06 -1.1236591e-05  9.4285714    
     92400   1.1228351e-06  2.5217669e-06 -5.8516189e-06 -4.384933e-06  -1.123857e-05   9.4285714    
     92500   1.0604557e-06  2.5313866e-06 -5.8345356e-06 -4.4206348e-06 -1.1171921e-05  9.4285714    
     92600   1.0856335e-06  2.4327268e-06 -5.7411852e-06 -4.3483364e-06 -1.1068578e-05  9.4285714    
     92700   1.034792e-06   2.4047311e-06 -5.9812442e-06 -4.1218267e-06 -1.0944366e-05  9.4285714    
     92800   9.5389569e-07  2.4458909e-06 -6.2397664e-06 -3.9932556e-06 -1.0760211e-05  9.4285714    
     92900   9.3818331e-07  2.4483824e-06 -6.3482199e-06 -3.978485e-06  -1.0594258e-05  9.4285714    
     93000   9.2216113e-07  2.4205874e-06 -6.5050229e-06 -4.0939472e-06 -1.0460733e-05  9.4285714    
     93100   8.6294298e-07  2.4217354e-06 -6.6406731e-06 -4.1694998e-06 -1.0451932e-05  9.4285714    
     93200   8.3253873e-07  2.4411721e-06 -6.6359248e-06 -4.2303952e-06 -1.0512946e-05  9.4285714    
     93300   8.4293058e-07  2.4360286e-06 -6.8733272e-06 -4.4319542e-06 -1.0515389e-05  9.4285714    
     93400   8.6120644e-07  2.3916991e-06 -7.1113599e-06 -4.7069717e-06 -1.0633276e-05  9.4285714    
     93500   8.3789172e-07  2.389507e-06  -6.8388887e-06 -4.8482223e-06 -1.0715113e-05  9.4285714    
     93600   7.8878962e-07  2.4313721e-06 -6.5310506e-06 -4.736205e-06  -1.0690965e-05  9.4285714    
     93700   7.7010628e-07  2.4325653e-06 -6.2073335e-06 -4.4439399e-06 -1.0764559e-05  9.4285714    
     93800   7.5967938e-07  2.4052405e-06 -6.0212009e-06 -4.2394208e-06 -1.0858435e-05  9.4285714    
     93900   7.525053e-07   2.3871058e-06 -6.1827874e-06 -4.2203289e-06 -1.0917731e-05  9.4285714    
     94000   7.6518205e-07  2.3727529e-06 -6.4037777e-06 -4.2140033e-06 -1.0922235e-05  9.4285714    
     94100   7.2636468e-07  2.3786926e-06 -6.7222108e-06 -4.230759e-06  -1.0899228e-05  9.4285714    
     94200   6.3497649e-07  2.3995047e-06 -6.9552513e-06 -4.2757384e-06 -1.0931736e-05  9.4285714    
     94300   5.8188445e-07  2.4078842e-06 -6.8603397e-06 -4.2393876e-06 -1.0962262e-05  9.4285714    
     94400   5.7807762e-07  2.4093455e-06 -6.8085994e-06 -4.2680247e-06 -1.101403e-05   9.4285714    
     94500   5.9063841e-07  2.4038964e-06 -6.7471296e-06 -4.2545968e-06 -1.1100761e-05  9.4285714    
     94600   5.9632912e-07  2.3835357e-06 -6.6731352e-06 -4.1357083e-06 -1.1145712e-05  9.4285714    
     94700   5.6732204e-07  2.372236e-06  -6.8553073e-06 -4.1249115e-06 -1.1176036e-05  9.4285714    
     94800   5.0740175e-07  2.3907546e-06 -7.0100348e-06 -4.2017191e-06 -1.1154602e-05  9.4285714    
     94900   4.6554207e-07  2.415961e-06  -7.0719159e-06 -4.3732065e-06 -1.1116336e-05  9.4285714    
     95000   4.7202711e-07  2.4274768e-06 -7.1602308e-06 -4.6534699e-06 -1.1128644e-05  9.4285714    
     95100   4.9199204e-07  2.4376922e-06 -7.1491581e-06 -4.8915075e-06 -1.1153704e-05  9.4285714    
     95200   4.9106864e-07  2.4532432e-06 -7.1426959e-06 -5.0488955e-06 -1.1191378e-05  9.4285714    
     95300   4.7209239e-07  2.4749952e-06 -7.137967e-06  -5.211907e-06  -1.1210623e-05  9.4285714    
     95400   4.4269278e-07  2.5109278e-06 -7.0566055e-06 -5.4001337e-06 -1.1220017e-05  9.4285714    
     95500   4.1617453e-07  2.5525742e-06 -6.9732933e-06 -5.4125365e-06 -1.1234497e-05  9.4285714    
     95600   4.1785879e-07  2.5712797e-06 -6.8347254e-06 -5.3777375e-06 -1.1244928e-05  9.4285714    
     95700   4.2667998e-07  2.5689076e-06 -6.625474e-06  -5.2677588e-06 -1.129514e-05   9.4285714    
     95800   4.0926201e-07  2.5649209e-06 -6.4724183e-06 -5.0037991e-06 -1.1375209e-05  9.4285714    
     95900   3.9159875e-07  2.5532013e-06 -6.4270165e-06 -4.8718277e-06 -1.146329e-05   9.4285714    
     96000   3.8339337e-07  2.5399403e-06 -6.5166463e-06 -4.8204032e-06 -1.1524598e-05  9.4285714    
     96100   3.6250588e-07  2.5547599e-06 -6.7440236e-06 -4.8089311e-06 -1.1580119e-05  9.4285714    
     96200   3.4425375e-07  2.5842871e-06 -6.8803346e-06 -4.9021352e-06 -1.1625381e-05  9.4285714    
     96300   3.4314051e-07  2.5970139e-06 -6.9175309e-06 -4.9949596e-06 -1.1640445e-05  9.4285714    
     96400   3.348492e-07   2.6011484e-06 -6.9068299e-06 -4.969228e-06  -1.1641052e-05  9.4285714    
     96500   3.2740062e-07  2.5975103e-06 -6.7629722e-06 -4.8913454e-06 -1.16125e-05    9.4285714    
     96600   3.3990004e-07  2.5778314e-06 -6.6546434e-06 -4.818005e-06  -1.155856e-05   9.4285714    
     96700   3.4835688e-07  2.5572263e-06 -6.6173934e-06 -4.7424361e-06 -1.1491515e-05  9.4285714    
     96800   3.4203324e-07  2.5411918e-06 -6.5703279e-06 -4.7291383e-06 -1.1426613e-05  9.4285714    
     96900   3.4717879e-07  2.5124852e-06 -6.5613749e-06 -4.7598447e-06 -1.1383236e-05  9.4285714    
     97000   3.5606664e-07  2.4832472e-06 -6.5440204e-06 -4.7469913e-06 -1.1340642e-05  9.4285714    
     97100   3.4689501e-07  2.4753907e-06 -6.5182511e-06 -4.7341933e-06 -1.1308074e-05  9.4285714    
     97200   3.3543442e-07  2.4697017e-06 -6.4954172e-06 -4.7528057e-06 -1.1257364e-05  9.4285714    
     97300   3.3082091e-07  2.4475787e-06 -6.4900827e-06 -4.8000307e-06 -1.1188599e-05  9.4285714    
     97400   3.2049623e-07  2.421807e-06  -6.5365952e-06 -4.8284537e-06 -1.1125699e-05  9.4285714    
     97500   3.1393785e-07  2.3983969e-06 -6.5640964e-06 -4.8439186e-06 -1.1060145e-05  9.4285714    
     97600   3.2333383e-07  2.3740678e-06 -6.5382456e-06 -4.8701413e-06 -1.0981368e-05  9.4285714    
     97700   3.3216593e-07  2.3590254e-06 -6.4604472e-06 -4.8663645e-06 -1.0890363e-05  9.4285714    
     97800   3.3122193e-07  2.3520581e-06 -6.3201599e-06 -4.8463995e-06 -1.0768833e-05  9.4285714    
     97900   3.3314155e-07  2.3349929e-06 -6.2205931e-06 -4.8636904e-06 -1.0634696e-05  9.4285714    
     98000   3.4143859e-07  2.309702e-06  -6.1767214e-06 -4.8499151e-06 -1.0520099e-05  9.4285714    
     98100   3.5164198e-07  2.2923813e-06 -6.1424621e-06 -4.8003099e-06 -1.0430148e-05  9.4285714    
     98200   3.6970715e-07  2.2841632e-06 -6.1336057e-06 -4.7613069e-06 -1.0358691e-05  9.4285714    
     98300   3.9719646e-07  2.282482e-06  -6.0852327e-06 -4.6663773e-06 -1.0295206e-05  9.4285714    
     98400   4.2837395e-07  2.2900469e-06 -5.9996315e-06 -4.5584691e-06 -1.0247139e-05  9.4285714    
     98500   4.663433e-07   2.297723e-06  -5.964183e-06  -4.4890792e-06 -1.0221606e-05  9.4285714    
     98600   5.1452135e-07  2.292557e-06  -5.9586595e-06 -4.4313848e-06 -1.0219477e-05  9.4285714    
     98700   5.6140426e-07  2.2798984e-06 -6.0259123e-06 -4.4233112e-06 -1.0241264e-05  9.4285714    
     98800   5.9853158e-07  2.2712803e-06 -6.1740102e-06 -4.4533704e-06 -1.0278199e-05  9.4285714    
     98900   6.3389657e-07  2.2646036e-06 -6.2912783e-06 -4.4637395e-06 -1.032345e-05   9.4285714    
     99000   6.7697815e-07  2.2566964e-06 -6.3842577e-06 -4.4711001e-06 -1.0381497e-05  9.4285714    
     99100   7.2412857e-07  2.2524051e-06 -6.3716555e-06 -4.4927182e-06 -1.0463591e-05  9.4285714    
     99200   7.6905654e-07  2.2543776e-06 -6.2797918e-06 -4.5230141e-06 -1.0530839e-05  9.4285714    
     99300   8.1431223e-07  2.2596739e-06 -6.218852e-06  -4.5940496e-06 -1.0572193e-05  9.4285714    
     99400   8.6003294e-07  2.267547e-06  -6.0775076e-06 -4.6427929e-06 -1.0615103e-05  9.4285714    
     99500   8.8239585e-07  2.2770239e-06 -5.9517073e-06 -4.7101092e-06 -1.0692496e-05  9.4285714    
     99600   8.5096022e-07  2.2908829e-06 -6.019527e-06  -4.7775582e-06 -1.0925339e-05  9.4285714    
     99700   8.1706939e-07  2.3088476e-06 -6.0664106e-06 -4.7858346e-06 -1.1045674e-05  9.4285714    
     99800   8.0926724e-07  2.3313983e-06 -6.1460992e-06 -4.7996563e-06 -1.1100647e-05  9.4285714    
     99900   8.2000425e-07  2.3467377e-06 -6.3360506e-06 -4.8148566e-06 -1.1206698e-05  9.4285714    
    100000   8.3836426e-07  2.3410574e-06 -6.4478787e-06 -4.7805386e-06 -1.1194792e-05  9.4285714    
Loop time of 205.797 on 4 procs for 100000 steps with 2520 atoms

Performance: 2099152.598 tau/day, 485.915 timesteps/s, 1.225 Matom-step/s
98.6% CPU use with 4 MPI tasks x 1 OpenMP threads

MPI task timing breakdown:
Section |  min time  |  avg time  |  max time  |%varavg| %total
---------------------------------------------------------------
Pair    | 0.015236   | 0.33504    | 1.2031     |  86.6 |  0.16
Bond    | 190.33     | 191.95     | 192.7      |   6.9 | 93.27
Neigh   | 1.998      | 2.0106     | 2.0173     |   0.5 |  0.98
Comm    | 0.34641    | 0.56009    | 0.81063    |  25.4 |  0.27
Output  | 0.061173   | 0.086323   | 0.096922   |   5.0 |  0.04
Modify  | 0.38651    | 3.4651     | 11.083     | 236.9 |  1.68
Other   |            | 7.386      |            |       |  3.59

Nlocal:            630 ave        2514 max           0 min
Histogram: 3 0 0 0 0 0 0 0 0 1
Nghost:          50.25 ave         195 max           0 min
Histogram: 3 0 0 0 0 0 0 0 0 1
Neighs:        2446.25 ave        9775 max           0 min
Histogram: 3 0 0 0 0 0 0 0 0 1

Total # of neighbors = 9785
Ave neighs/atom = 3.8829365
Ave special neighs/atom = 36.31746
Neighbor list builds = 5268
Dangerous builds = 0
Total wall time: 0:03:25
