LAMMPS (2 Sep 2026)
  using 1 OpenMP thread(s) per MPI task
units           lj
dimension       3
boundary        m m m
atom_style      bpm/sphere
special_bonds   lj 0.0 1.0 1.0 coul 1.0 1.0 1.0
newton          on off
comm_modify     vel yes cutoff 3.3
region          box block -15 15 -15 15 0 60.0
create_box      1 box bond/types 1 extra/bond/per/atom 15 extra/special/per/atom 50
Created orthogonal box = (-15 -15 0) to (15 15 60)
  1 by 1 by 1 MPI processor grid

molecule        my_mol "rect.mol"
Read molecule template my_mol:
#Made with create_mol.py
  1 molecules
  0 fragments
  0 bodies
  63 atoms with max type 1
  297 bonds with max type 1
  0 angles with max type 0
  0 dihedrals with max type 0
  0 impropers with max type 0
region          wall_cyl cylinder z 0.0 0.0 10.0 EDGE EDGE side in
region          dropzone cylinder z 0.0 0.0 10.0 40.0 50.0 side in

pair_style      gran/hertz/history 1.0 NULL 0.5 NULL 0.1 1
bond_style      bpm/rotational break no smooth no
pair_coeff      1 1
bond_coeff      1 1.0 0.2 0.01 0.01 0.0 0.0 0.0 0.0 0.2 0.04 0.002 0.002

compute         nbond all nbond/atom
compute         tbond all reduce sum c_nbond
compute         bond_ids all property/local batom1 batom2
compute         bond_properties all bond/local dist b1

compute_modify  thermo_temp dynamic/dof yes

fix             1 all wall/gran hertz/history 1.0 NULL 0.5 NULL 0.1 1 zplane 0.0 NULL
fix             2 all wall/gran/region hertz/history 1.0 NULL 0.5 NULL 0.1 1 region wall_cyl
fix             3 all gravity 1e-4 vector 0 0 -1
fix             4 all deposit 40 0 1500 712511343 mol my_mol region dropzone near 2.0 vz -0.05 -0.05
fix             5 all nve/bpm/sphere

timestep        0.05
thermo_style    custom step ke pe pxx pyy pzz c_tbond
thermo          100
#dump            1 all custom 500 atomDump id radius x y z c_nbond mol
#dump            2 all local 500 bondDump c_bond_ids[*] c_bond_properties[*]
#dump_modify     2 colname 1 "id1" colname 2 "id2" colname 3 "r" colname 4 "r0"

#dump            viz  all  image 250 bpm.pour-*.ppm mol type  bond atom type #                size 500 800 zoom 1.75  view 80 10 box no 0.025 #                shiny 0.6  fsaa yes ssao no 453983 0.6 region wall_cyl silver transparent 0.25
#dump_modify     viz pad 6 boxcolor gray backcolor black backcolor2 white #                amap 1 500 sa 1.0 8 #                firebrick gold forestgreen darkcyan orange midnightblue purple darkgray

run             100000

CITE-CITE-CITE-CITE-CITE-CITE-CITE-CITE-CITE-CITE-CITE-CITE-CITE

Your simulation uses code contributions which should be cited:

- BPM bond style: https://doi.org/10.1039/D3SM01373A

@Article{Clemmer2024,
 author =  {Clemmer, Joel T. and Monti, Joseph M. and Lechman, Jeremy B.},
 title =   {A soft departure from jamming: the compaction of deformable
            granular matter under high pressures},
 journal = {Soft Matter},
 year =    2024,
 volume =  20,
 number =  8,
 pages =   {1702--1718}
}

CITE-CITE-CITE-CITE-CITE-CITE-CITE-CITE-CITE-CITE-CITE-CITE-CITE

Generated 0 of 0 mixed pair_coeff terms from geometric mixing rule
Neighbor list info ...
  update: every = 1 steps, delay = 0 steps, check = yes
  max neighbors/atom: 2000, page size: 100000
  master list distance cutoff = 1.3
  ghost atom cutoff = 3.3
  binsize = 0.65, bins = 47 47 93
  1 neighbor lists, perpetual/occasional/extra = 1 0 0
  (1) pair gran/hertz/history, perpetual
      attributes: half, newton on, size, history
      pair build: half/size/bin/newton
      stencil: half/bin/3d
      bin: standard
Per MPI rank memory allocation (min/avg/max) = 7.643 | 7.643 | 7.643 Mbytes
   Step         KinEng         PotEng          Pxx            Pyy            Pzz          c_tbond    
         0  -0              0              0              0              0              0            
       100   0.0018335508   0.00025926523 -1.2375482e-05 -1.0844673e-05 -3.1868858e-07  9.4285714    
       200   0.0025960594   0.00020839118  2.5046298e-06  3.5295582e-06  4.409439e-06   9.4285714    
       300   0.0037002941   0.00047061973  6.0523265e-06  9.3809956e-07  5.1692947e-06  9.4285714    
       400   0.0060200006   0.00079201218 -2.0367487e-05 -1.5519847e-06 -4.5891929e-06  9.4285714    
       500   0.007457645    0.00059583545  2.1286671e-05  1.9254751e-05  1.3748685e-05  9.4285714    
       600   0.0078048005   5.7475659e-05 -1.9835939e-06  1.4212431e-05  2.4834584e-06  9.4285714    
       700   0.0075689409   0.00018354925 -8.3974302e-07  1.3155518e-05  2.8824694e-06  9.4285714    
       800   0.0074034253   0.00030684998  1.672194e-05   1.3582436e-05  1.352411e-05   9.4285714    
       900   0.0075615075   0.00013173119 -7.8831966e-06  1.3654661e-05 -2.6853711e-06  9.4285714    
      1000   0.0075898427   7.7249764e-05  8.2601322e-06  1.389569e-05   9.0843684e-06  9.4285714    
      1100   0.0075347601   0.00012859461  9.6740799e-06  1.3638135e-05  1.002989e-05   9.4285714    
      1200   0.0075072728   0.00016060278 -3.551904e-06   1.0717201e-05 -2.1183136e-06  9.4285714    
      1300   0.0075710194   0.0001011278   8.4898056e-06  1.6422747e-05  1.067087e-05   9.4285714    
      1400   0.0076284606   4.9612056e-05  5.0793294e-06  1.3606869e-05  6.5844461e-06  9.4285714    
      1500   0.0076088968   7.5860838e-05  2.0398919e-06  8.9806332e-06  2.2469116e-06  9.4285714    
      1600   0.005984572    0.00029227276  4.1041122e-06  1.8851954e-05  8.3896693e-06  9.4285714    
      1700   0.0080297945   0.00026829648  3.6378135e-06  2.3764846e-05  1.6791357e-06  9.4285714    
      1800   0.0087483523   0.00011772739  7.1482609e-06  3.5069278e-05  1.4931092e-05  9.4285714    
      1900   0.0086856558   0.00014897049  7.5013174e-06  3.5292532e-05  1.3542216e-05  9.4285714    
      2000   0.0086762775   0.00015379595  6.196257e-06   2.5995183e-05  7.0480927e-06  9.4285714    
      2100   0.0084577722   0.00015540402  8.5446783e-06  3.102859e-05   1.3678059e-05  9.4285714    
      2200   0.0083594993   0.0001212251   6.9447273e-06  2.8253594e-05  6.3524494e-06  9.4285714    
      2300   0.0083492489   0.00012756613  1.0372786e-05  2.3871028e-05  1.2494608e-05  9.4285714    
      2400   0.008307376    0.00016714685  1.0685138e-05  3.2406727e-05  1.1411822e-05  9.4285714    
      2500   0.008383357    9.6975363e-05  7.5243237e-06  2.6488503e-05  8.1730107e-06  9.4285714    
      2600   0.0084065313   9.3811819e-05  9.8023742e-06  2.7006673e-05  1.3022161e-05  9.4285714    
      2700   0.0082718127   0.00010275437  1.0372806e-05  2.8623573e-05  1.2222825e-05  9.4285714    
      2800   0.0073645848   0.00035958155  8.5731668e-06  1.8733407e-05  1.1109041e-05  9.4285714    
      2900   0.0072707072   0.0005106471   9.7410984e-06  1.6584905e-05  1.258607e-05   9.4285714    
      3000   0.0072225055   0.00036305442  5.4102967e-06  1.1704097e-05  1.1543127e-05  9.4285714    
      3100   0.0048245756   0.00032662671 -1.3136199e-05  1.8928782e-07  1.2250485e-05  9.4285714    
      3200   0.0045692452   0.00039344734 -1.2254321e-05  1.1538095e-06  1.2563702e-05  9.4285714    
      3300   0.0047655002   0.00020298186  5.4294102e-06  1.0240847e-05  1.7250149e-05  9.4285714    
      3400   0.0048430206   0.0001879143   9.9969691e-06  1.5653666e-05  1.8048341e-05  9.4285714    
      3500   0.0048337122   0.00022007919  1.0020347e-05  1.5403336e-05  1.8608319e-05  9.4285714    
      3600   0.004714768    0.00016995632  1.0156978e-05  1.3226804e-05  1.533551e-05   9.4285714    
      3700   0.0045654551   0.0003147284   8.9184187e-06  1.6162379e-05  1.0460763e-05  9.4285714    
      3800   0.0045545866   0.00044763149  7.456393e-06   1.3540398e-05  1.3088702e-05  9.4285714    
      3900   0.0047304718   0.00027558046  9.0637226e-06  1.0873917e-05  1.6491451e-05  9.4285714    
      4000   0.0049120447   0.00010183339  8.4951385e-06  1.5664952e-05  1.4425347e-05  9.4285714    
      4100   0.0046852543   0.00023695826  5.8240106e-06  1.19828e-05    1.9294224e-05  9.4285714    
      4200   0.00353987     0.00064015336 -2.8144844e-05 -2.7047154e-05  1.0493755e-05  9.4285714    
      4300   0.0031991095   0.0005034321  -2.1627195e-05 -1.8733537e-05  7.8741571e-06  9.4285714    
      4400   0.003348275    0.00034308938  1.0516283e-05  1.0546064e-05  2.2707179e-05  9.4285714    
      4500   0.0034775381   0.00029363424  5.5764387e-07  4.5730706e-06  1.3995899e-05  9.4285714    
      4600   0.0029984744   0.00024266309  4.2050364e-06  3.8575953e-06  1.9354882e-05  9.4285714    
      4700   0.0030703117   0.00017530084  1.0819881e-05  9.5661938e-06  3.1201489e-05  9.4285714    
      4800   0.0031200068   0.00013453395  6.6985993e-06  9.5556439e-06  1.8699061e-05  9.4285714    
      4900   0.0030332781   0.00021880574  5.6911915e-06  4.5873525e-06  2.1993823e-05  9.4285714    
      5000   0.0030219011   0.00021378057  5.1851851e-06 -2.8166143e-06  2.5272214e-05  9.4285714    
      5100   0.0030503946   0.00014837835  4.5569804e-06 -7.9381978e-06  2.1897368e-05  9.4285714    
      5200   0.0030063929   0.00018605609  4.7808317e-06 -9.1038868e-06  2.7222117e-05  9.4285714    
      5300   0.0030003722   0.00022210059  4.6947529e-06 -4.2885508e-06  1.6692542e-05  9.4285714    
      5400   0.0031524615   0.00010448646  5.8829652e-06  2.146893e-06   2.3676069e-05  9.4285714    
      5500   0.0031998474   9.0557584e-05  6.9868948e-06  7.8653387e-06  3.3229893e-05  9.4285714    
      5600   0.0031494643   0.00016404019  6.4347148e-06  7.1336852e-06  1.8354706e-05  9.4285714    
      5700   0.0032127424   0.00011506024  6.2355407e-06  5.5911031e-06  2.2697817e-05  9.4285714    
      5800   0.0030759795   0.00012741547  6.4106092e-06  8.4131693e-06  2.736473e-05   9.4285714    
      5900   0.0025295845   0.00018964108  2.5531812e-06  3.468825e-06   1.6586511e-05  9.4285714    
      6000   0.0024610002   0.00020634405  3.1879965e-06  6.6465136e-07  1.3242017e-05  9.4285714    
      6100   0.0024848201   0.00019130654  4.8309731e-06  1.1487149e-05  2.8355827e-05  9.4285714    
      6200   0.0025064573   0.00023260041  6.1095713e-06  2.1239185e-06  2.9074024e-05  9.4285714    
      6300   0.0025830944   0.00016738736  2.3091302e-06 -2.6176872e-06  1.9103609e-05  9.4285714    
      6400   0.0033921161   0.000269544    5.4116734e-06 -2.7265613e-06  2.3757731e-05  9.4285714    
      6500   0.0038149256   0.00027546851  1.3356738e-05  3.2454502e-06  2.6771805e-05  9.4285714    
      6600   0.0038635621   0.00036999531  1.2472184e-05  1.7809755e-05  2.7377076e-05  9.4285714    
      6700   0.0038593448   0.00023816123  1.7979432e-06  9.0149969e-06  2.6286283e-05  9.4285714    
      6800   0.0037465866   0.00024112774  2.2115704e-05  1.2436445e-05  3.76644e-05    9.4285714    
      6900   0.0035308965   0.00037579531  2.406422e-06   2.5371691e-06  3.312436e-05   9.4285714    
      7000   0.0031794376   0.00057523149 -3.1526953e-06 -2.7510981e-05  1.2813942e-05  9.4285714    
      7100   0.0032441114   0.00052152693  1.5003332e-05 -1.0854212e-05  3.383486e-05   9.4285714    
      7200   0.0034479975   0.00034836798  3.5574982e-06  4.3049626e-06  3.6098965e-05  9.4285714    
      7300   0.0035626787   0.0002581018   1.0004682e-05 -1.4984704e-05  3.9098662e-05  9.4285714    
      7400   0.003528189    0.0003241799   8.149038e-06   1.4392851e-05  3.5833063e-05  9.4285714    
      7500   0.0036324409   0.0002304613   8.1583107e-07  8.7838593e-06  3.0669525e-05  9.4285714    
      7600   0.0033180084   0.00012350026  1.0084066e-05  2.3368885e-06  3.9813626e-05  9.4285714    
      7700   0.0033593664   0.00024677229  1.6435068e-06  1.7119187e-05  3.7439091e-05  9.4285714    
      7800   0.0035947817   0.00025889286  4.1833038e-06  9.3761248e-06  3.1671157e-05  9.4285714    
      7900   0.0039593486   0.00019563999  1.2133424e-05  1.3238724e-05  3.5421678e-05  9.4285714    
      8000   0.0043094394   0.00020505593  1.2880846e-05  1.4016699e-05  3.7422095e-05  9.4285714    
      8100   0.0048529974   0.00019125697  2.0983978e-05  1.0377193e-05  3.2645852e-05  9.4285714    
      8200   0.0052716226   0.00018868093  3.5170948e-05  1.4120563e-05  4.4052875e-05  9.4285714    
      8300   0.0052620308   0.00026938609  3.2941092e-05  1.0061171e-05  4.3525719e-05  9.4285714    
      8400   0.005339532    0.00018217868  3.4687009e-05  8.7599891e-06  3.5528645e-05  9.4285714    
      8500   0.0053777874   0.00012124946  3.5686197e-05  8.8449172e-06  5.4282828e-05  9.4285714    
      8600   0.0052904516   0.00022497627  3.204458e-05   4.0477024e-06  3.9171756e-05  9.4285714    
      8700   0.00534618     0.00019827377  3.7350134e-05  1.1008029e-05  3.4348977e-05  9.4285714    
      8800   0.0054590143   0.00010215576  3.5776855e-05  1.4178073e-05  6.1244023e-05  9.4285714    
      8900   0.0054392242   0.00014860035  3.2017919e-05  1.0696895e-05  4.5219491e-05  9.4285714    
      9000   0.0054326407   0.0001786004   3.5942212e-05  1.1714022e-05  4.3198111e-05  9.4285714    
      9100   0.0048911701   0.00011865639  3.6573823e-05  1.2679926e-05  5.4115321e-05  9.4285714    
      9200   0.0049314869   0.0001058822   3.3900866e-05  1.2160266e-05  4.7861649e-05  9.4285714    
      9300   0.0049043424   0.00010926749  3.2536092e-05  1.0225669e-05  5.9031831e-05  9.4285714    
      9400   0.0047365301   0.00015203356  2.6504387e-05  1.6565865e-05  5.3061507e-05  9.4285714    
      9500   0.004577556    0.00020932125  2.3018681e-05  1.3204233e-05  5.5312416e-05  9.4285714    
      9600   0.0043797451   0.00040500565  2.6748775e-05  4.3759733e-06  6.2799357e-05  9.4285714    
      9700   0.0043672093   0.00052854781  1.3498941e-05  6.64026e-06    4.6256752e-05  9.4285714    
      9800   0.0045234437   0.00040297945  2.3189192e-05  1.4335685e-05  4.6929728e-05  9.4285714    
      9900   0.0047832364   0.00014380655  3.9140833e-05  1.8385837e-05  6.1772606e-05  9.4285714    
     10000   0.0047547957   0.00017974512  2.1939115e-05  9.8393682e-06  7.2005038e-05  9.4285714    
     10100   0.0045888678   0.00037432074  1.4833443e-05  9.1761477e-06  4.8556799e-05  9.4285714    
     10200   0.00459309     0.00027045379  4.5182212e-06  7.4120091e-06  4.8754368e-05  9.4285714    
     10300   0.0045475497   0.00017852883 -1.3031413e-05  6.1494754e-07  7.1001003e-05  9.4285714    
     10400   0.0042282056   0.00044372082 -3.8390322e-05  1.3165618e-05  5.670429e-05   9.4285714    
     10500   0.0042798705   0.00048805456 -2.9812095e-05  4.7984367e-06  4.9793825e-05  9.4285714    
     10600   0.0045832726   0.00021112615  1.6287063e-05  2.6817383e-05  5.8674942e-05  9.4285714    
     10700   0.0054850724   0.000165676    1.9455241e-05  5.7276781e-05  6.4904054e-05  9.4285714    
     10800   0.0057236133   0.00030757949  1.042682e-05   1.6138593e-05  7.0012917e-05  9.4285714    
     10900   0.0056776336   0.00029110581  1.2074179e-05  1.4728019e-05  6.4333014e-05  9.4285714    
     11000   0.005853186    0.00018386726  1.7247221e-05  5.9782345e-05  6.7043271e-05  9.4285714    
     11100   0.0056929131   0.00030255139  1.949702e-05   4.1234244e-05  6.4451045e-05  9.4285714    
     11200   0.0053830461   0.00045106942 -4.4990812e-06  7.9103913e-06  3.6292888e-05  9.4285714    
     11300   0.0055037381   0.00032202423  1.3907015e-05  4.342365e-05   4.9156874e-05  9.4285714    
     11400   0.0055248541   0.00031188503  4.6941275e-05  4.0136207e-05  6.6866753e-05  9.4285714    
     11500   0.0055120264   0.000338939    1.8749073e-06  1.8749598e-05  6.3726581e-05  9.4285714    
     11600   0.0055294574   0.00034485534  3.5865908e-05  3.3185752e-05  6.4602566e-05  9.4285714    
     11700   0.0056404893   0.00023470455  3.4297822e-05  4.8492345e-05  6.1107328e-05  9.4285714    
     11800   0.0056113345   0.00023289675  5.4007766e-06  4.7359398e-05  6.1628463e-05  9.4285714    
     11900   0.0052224988   0.00037632449  2.2769742e-05  3.3092622e-05  5.006834e-05   9.4285714    
     12000   0.0052321333   0.00049152025  1.3382674e-05  3.0700257e-05  6.1555695e-05  9.4285714    
     12100   0.0047747495   0.00060145477  6.4099038e-06  3.9336441e-05  5.0428127e-05  9.4285714    
     12200   0.0049750124   0.00044765914 -6.1987279e-06  5.2364472e-05  6.7079806e-05  9.4285714    
     12300   0.0050953016   0.00031693875  4.5729558e-05  3.7958405e-05  7.9184625e-05  9.4285714    
     12400   0.0050314664   0.0003645098   2.7638138e-05  3.5198951e-05  5.4415446e-05  9.4285714    
     12500   0.0049509066   0.00044903461 -1.2587127e-05  4.9443797e-05  7.0361699e-05  9.4285714    
     12600   0.0048601371   0.00036456614  2.3374937e-05  2.1698817e-05  6.7756101e-05  9.4285714    
     12700   0.0045336814   0.00037214514  2.3043785e-05 -2.4164842e-05  5.7337417e-05  9.4285714    
     12800   0.0043150375   0.00041532869  1.3672968e-05  7.1291512e-06  7.5952525e-05  9.4285714    
     12900   0.0043105107   0.00045708803  1.1451731e-05  3.5923855e-05  7.2032118e-05  9.4285714    
     13000   0.0044476869   0.00034637602  3.4547035e-06  3.4688699e-05  7.2600367e-05  9.4285714    
     13100   0.0046402975   0.0002488479   3.1328528e-05  2.6046287e-05  6.6391802e-05  9.4285714    
     13200   0.0045495398   0.00035606671  2.3557894e-05  2.7156233e-05  9.8937014e-05  9.4285714    
     13300   0.0045506945   0.00037079838  1.1080249e-07  3.7104211e-05  7.4877648e-05  9.4285714    
     13400   0.0045050387   0.00034560197  1.8114227e-05  3.4515427e-05  5.444432e-05   9.4285714    
     13500   0.0042851508   0.00043153577  2.2510035e-05  1.904773e-05   2.8966892e-05  9.4285714    
     13600   0.0038581359   0.00035708711  2.0323567e-05  7.1764904e-06  3.06412e-05    9.4285714    
     13700   0.0035774441   0.00051357865  8.220208e-06   1.6739943e-05  5.3659024e-05  9.4285714    
     13800   0.0038850611   0.00060408281  8.9066274e-06  2.0133329e-07  4.1071042e-05  9.4285714    
     13900   0.0041852115   0.00048585903  3.5249629e-05  3.7853224e-06  6.6036385e-05  9.4285714    
     14000   0.0046835692   0.00027965506  2.6029428e-05  3.7131313e-05  7.3804277e-05  9.4285714    
     14100   0.004687329    0.00038981945  1.6524847e-05  2.9094448e-05  6.6838158e-05  9.4285714    
     14200   0.0044849369   0.00054732181  2.8354693e-05  3.4135083e-05  5.8922198e-05  9.4285714    
     14300   0.0046299761   0.00040225936  1.8624402e-05  3.0511265e-05  6.4699937e-05  9.4285714    
     14400   0.004755176    0.00028883964  2.3673666e-05  3.7515774e-05  6.9682321e-05  9.4285714    
     14500   0.0046298349   0.00037360619  2.6077281e-05  3.3132056e-05  7.2540661e-05  9.4285714    
     14600   0.0045378167   0.00047622497  1.154277e-05   2.1752012e-05  6.2313986e-05  9.4285714    
     14700   0.0044800947   0.00047108651  2.4922276e-05  2.8583291e-05  6.29769e-05    9.4285714    
     14800   0.0042937612   0.0004485002   2.2388201e-05  3.4896713e-05  7.9247961e-05  9.4285714    
     14900   0.0040355201   0.00057526032  1.6225414e-05 -7.5060189e-08  7.4223659e-05  9.4285714    
     15000   0.0039478297   0.00064302001  1.5960976e-05 -8.2074906e-06  5.6777794e-05  9.4285714    
     15100   0.0042302839   0.0003780378   2.6408058e-06  2.8437035e-05  6.9396531e-05  9.4285714    
     15200   0.004962784    0.0002681085   5.1365234e-05  4.1601581e-05  8.9218523e-05  9.4285714    
     15300   0.0050940909   0.00047483877  4.8624077e-05  1.8406683e-05  5.9925688e-05  9.4285714    
     15400   0.0050087834   0.000491677    2.876348e-05   1.9870964e-05  8.0090226e-05  9.4285714    
     15500   0.005090511    0.00030014132  5.0730682e-05  1.37803e-05    8.0844838e-05  9.4285714    
     15600   0.0049914939   0.00038728249  6.6888426e-05  2.173067e-05   6.3230116e-05  9.4285714    
     15700   0.0048092367   0.00057750603  4.6492628e-05  2.554855e-05   7.4598953e-05  9.4285714    
     15800   0.0048974141   0.00046167495  2.3015245e-05  2.3032763e-05  6.7589463e-05  9.4285714    
     15900   0.0051125555   0.00025709889  5.7789157e-05  4.9226013e-05  7.6351056e-05  9.4285714    
     16000   0.0050571413   0.00032388109  6.0851461e-05  2.6619022e-05  8.8468434e-05  9.4285714    
     16100   0.0048963043   0.00044061016  3.6395117e-05  1.7809415e-05  6.0990268e-05  9.4285714    
     16200   0.0048227165   0.00043977628  3.6306385e-05  2.7721973e-05  6.0764275e-05  9.4285714    
     16300   0.0049111053   0.00031143553  4.7240648e-05  2.4205749e-05  8.2525496e-05  9.4285714    
     16400   0.004273046    0.00039039197  3.4267661e-05  7.9217422e-06  1.3475079e-05  9.4285714    
     16500   0.0042450098   0.00038398258  5.0126204e-05 -5.7473446e-07  3.363643e-05   9.4285714    
     16600   0.0039597239   0.00043316772  2.5103009e-05 -2.497975e-06   6.9382336e-05  9.4285714    
     16700   0.0039987593   0.00048236453  3.3778805e-05 -7.1009223e-06  5.5558659e-05  9.4285714    
     16800   0.0040998861   0.0004387098   6.3413533e-05 -5.3926899e-06  7.1561416e-05  9.4285714    
     16900   0.0042969249   0.00031759103  3.6528048e-05  1.0617556e-05  6.2185662e-05  9.4285714    
     17000   0.0042626762   0.00031580197  4.7153853e-05  1.8043997e-05  5.3517522e-05  9.4285714    
     17100   0.0042495052   0.00042045895  4.6796878e-05 -3.5088131e-06  5.2011341e-05  9.4285714    
     17200   0.0045149261   0.00037593875  4.2644599e-05  9.8376813e-06  5.7026398e-05  9.4285714    
     17300   0.0046970168   0.00029912678  6.3109516e-05  3.3102255e-05  6.0084565e-05  9.4285714    
     17400   0.0046076981   0.00028803927  2.4565102e-05  4.1297088e-05  5.072578e-05   9.4285714    
     17500   0.004463455    0.00036187052  2.780044e-05   1.4316765e-05  4.5214802e-05  9.4285714    
     17600   0.004425074    0.00034296581  4.6251748e-05  3.9709406e-05  4.7177705e-05  9.4285714    
     17700   0.0044434838   0.0003260674   3.845375e-05   4.1299173e-05  8.0979473e-05  9.4285714    
     17800   0.0041667384   0.00041221758  3.373231e-05   2.9996028e-05  2.7410042e-05  9.4285714    
     17900   0.0040615361   0.00039441369  2.0931519e-06  2.8346395e-05  2.9218721e-05  9.4285714    
     18000   0.0033878222   0.00043319074  1.5136342e-05  4.4973123e-05  5.5948952e-05  9.4285714    
     18100   0.0032630051   0.00035855327  3.774185e-07   3.737424e-05   2.4096547e-05  9.4285714    
     18200   0.0034119435   0.00033327444  4.6538077e-06  4.4564201e-05  6.1903724e-05  9.4285714    
     18300   0.0034651924   0.00031058459  4.9796842e-05  4.4198963e-05  3.4996703e-05  9.4285714    
     18400   0.0034993159   0.00026734172  2.4097553e-05  3.0377229e-05  4.6950616e-05  9.4285714    
     18500   0.0034684369   0.00025987355  1.4600361e-05  6.2378786e-05  7.4033971e-05  9.4285714    
     18600   0.0034397449   0.00025846665  2.6831649e-05  3.4901457e-05  3.0528637e-05  9.4285714    
     18700   0.0034368041   0.00026735106  3.6168829e-05  2.7817106e-05  5.2829919e-05  9.4285714    
     18800   0.0033896129   0.00027234623  2.4964387e-05  6.640357e-05   6.3056718e-05  9.4285714    
     18900   0.0033903861   0.00024302941  5.8910913e-06  3.7343023e-05  4.4253709e-05  9.4285714    
     19000   0.0033847372   0.00026269066  2.6026904e-05  3.8308368e-05  5.8667321e-05  9.4285714    
     19100   0.0034137826   0.00024335946  3.4312005e-05  5.1995175e-05  5.4622332e-05  9.4285714    
     19200   0.0032401807   0.00023028754  6.1238388e-06  2.2913636e-05  4.9344766e-05  9.4285714    
     19300   0.0027607612   0.00034630076 -9.7223668e-06  1.9790564e-05  6.2650029e-05  9.4285714    
     19400   0.0028022613   0.00039552745 -1.8942829e-05  1.4276853e-05  4.8900983e-05  9.4285714    
     19500   0.0028496101   0.00031737739  2.8098315e-05  2.6968595e-05  2.3877496e-05  9.4285714    
     19600   0.0028296928   0.00023889046  1.5760375e-05  4.9942436e-05  2.1403992e-05  9.4285714    
     19700   0.0028019264   0.00025564952  1.2746874e-05  1.7863415e-05  2.7444354e-05  9.4285714    
     19800   0.0027837096   0.00023927978  3.1456782e-05  3.5811011e-05  3.9447128e-05  9.4285714    
     19900   0.0027544399   0.00027851283  2.0498945e-05  4.5643741e-05  5.4028597e-05  9.4285714    
     20000   0.0027300185   0.00031425398  2.6067855e-05  2.6317085e-05  5.4452814e-05  9.4285714    
     20100   0.0027709976   0.0002805515   2.2890092e-05  2.8134927e-05  5.8353357e-05  9.4285714    
     20200   0.0028194013   0.00022714473  2.370795e-05   3.9282474e-05  6.2286469e-05  9.4285714    
     20300   0.0028168927   0.00018770254  2.9532233e-05  3.2091507e-05  5.541477e-05   9.4285714    
     20400   0.0028261211   0.00019446818  2.0015536e-05  2.3049132e-05  5.6786537e-05  9.4285714    
     20500   0.002801259    0.00020537777  2.0655986e-05  3.93074e-05    5.3201344e-05  9.4285714    
     20600   0.0028030908   0.00019925319  2.4305537e-05  2.795796e-05   5.6506555e-05  9.4285714    
     20700   0.0027980526   0.0001983088   2.1792603e-05  3.1953684e-05  4.7215601e-05  9.4285714    
     20800   0.0028110491   0.00017505743  1.6399485e-05  3.2610464e-05  6.7189758e-05  9.4285714    
     20900   0.0028260769   0.00016221135  1.8113282e-05  2.6638925e-05  6.4388069e-05  9.4285714    
     21000   0.0028199292   0.00018350507  2.1914427e-05  3.8463909e-05  4.7859236e-05  9.4285714    
     21100   0.0027630355   0.00018903915  1.5002493e-05  1.4993403e-05  6.3479761e-05  9.4285714    
     21200   0.0030071028   0.00015331525  2.4634614e-05  1.6412429e-05  6.4548762e-05  9.4285714    
     21300   0.0031173309   0.00019847465  4.0370337e-05  4.3567107e-05  7.2060288e-05  9.4285714    
     21400   0.0031398917   0.00020280959  2.9608757e-05  2.6004043e-05  6.3983464e-05  9.4285714    
     21500   0.0031973238   0.00013711007  3.096985e-05   3.1802035e-05  7.1751434e-05  9.4285714    
     21600   0.0030703928   0.00015136928  3.4958602e-05  4.8612181e-05  8.8900356e-05  9.4285714    
     21700   0.0031151358   0.00014946093  3.7140637e-05  3.5518385e-05  7.7573726e-05  9.4285714    
     21800   0.0030738465   0.00018485355  1.3402502e-05  1.7594202e-05  5.609815e-05   9.4285714    
     21900   0.0030611609   0.00017026696  2.7443328e-05  1.6454596e-05  7.475748e-05   9.4285714    
     22000   0.0030818033   0.00013543471  2.5583881e-05  2.3567591e-05  7.057746e-05   9.4285714    
     22100   0.0030868905   0.00015096064  2.0017859e-05  2.5713023e-05  6.8842191e-05  9.4285714    
     22200   0.00303855     0.00019232638  2.0702305e-05  2.7070849e-05  7.7037985e-05  9.4285714    
     22300   0.0030047039   0.00016195312  1.011545e-06   2.4344902e-05  6.2479101e-05  9.4285714    
     22400   0.0029277687   0.00018361977  1.4168633e-05  2.283098e-05   6.187758e-05   9.4285714    
     22500   0.0028676246   0.00024790033  2.4688979e-05  2.6570897e-05  6.3443894e-05  9.4285714    
     22600   0.002763677    0.00022493025  1.3654265e-05  1.8548991e-05  4.7150956e-05  9.4285714    
     22700   0.0028068357   0.00015881514  3.092509e-05   1.3212193e-05  5.833669e-05   9.4285714    
     22800   0.0027822543   0.0001661493   2.5431799e-05  2.3122297e-05  7.6733692e-05  9.4285714    
     22900   0.0027052868   0.00021076214  3.4182313e-06  2.2095756e-05  5.8234759e-05  9.4285714    
     23000   0.0026768518   0.00020239029  2.4523103e-05  2.3254369e-05  7.428347e-05   9.4285714    
     23100   0.0025958423   0.00023553502 -1.2595549e-05  1.8422349e-05  7.2264845e-05  9.4285714    
     23200   0.0026251323   0.00021786708  5.8008189e-06  6.1681016e-06  5.2307908e-05  9.4285714    
     23300   0.0026699209   0.00016789208  3.8496065e-05  2.5371409e-05  6.798565e-05   9.4285714    
     23400   0.0025924882   0.0002102828   1.0207792e-05  2.0823593e-05  2.4735005e-05  9.4285714    
     23500   0.0025601831   0.00025906099  2.6614711e-05  7.7918191e-06  3.5163149e-06  9.4285714    
     23600   0.0026930746   0.00015929005  2.3603832e-05  2.6504566e-05  5.1747717e-05  9.4285714    
     23700   0.0027407375   0.00013180462  2.9825239e-05  1.9076526e-05  7.1546287e-05  9.4285714    
     23800   0.0026968943   0.00015395894  2.033563e-05   1.1456927e-05  6.0045673e-05  9.4285714    
     23900   0.0026829853   0.00015850967  5.0628203e-06  9.2428623e-06  5.7958851e-05  9.4285714    
     24000   0.0026676813   0.00017501512  2.26759e-05    1.9561324e-05  6.3667983e-05  9.4285714    
     24100   0.0025545211   0.00014761216  2.1378822e-05  1.5789845e-05  5.8758557e-05  9.4285714    
     24200   0.0024673171   0.00018404549  7.3059192e-06  8.2919013e-06  4.5649855e-05  9.4285714    
     24300   0.0024649416   0.00021190038  3.0885928e-05  1.4212563e-05  4.7685057e-05  9.4285714    
     24400   0.00258166     0.00016823476  1.4140706e-05  1.9144374e-05  6.4453271e-05  9.4285714    
     24500   0.0025888399   0.00020829066  4.1348833e-05  2.9285242e-05  4.8082729e-05  9.4285714    
     24600   0.0025369217   0.0002737472   7.2285335e-06  1.0347743e-05  5.7362242e-05  9.4285714    
     24700   0.0025668888   0.00019694388 -3.8200224e-06  5.987844e-07   4.6758642e-05  9.4285714    
     24800   0.0026149735   0.00017995667  1.5981462e-05  2.0493836e-05  4.1627578e-05  9.4285714    
     24900   0.00272408     0.00026230592  7.9970688e-06  1.5245268e-05  5.1121986e-05  9.4285714    
     25000   0.0029367419   0.00019773537  2.8619132e-05  1.0806756e-05  6.6279395e-05  9.4285714    
     25100   0.0030345254   0.00014900589  4.1485068e-05  2.2752851e-05  4.4579528e-05  9.4285714    
     25200   0.0030391548   0.00014547483  4.9976034e-05  2.1520702e-05  6.8506592e-05  9.4285714    
     25300   0.0029732018   0.00019178874  5.2380053e-05  2.122132e-05   5.5676844e-05  9.4285714    
     25400   0.0028257811   0.00023349229  3.982639e-05   1.1378626e-06  1.100095e-05   9.4285714    
     25500   0.0027751861   0.00024462155  3.8734272e-05  3.6543011e-06  3.5721511e-05  9.4285714    
     25600   0.0027265079   0.00018982279  4.0471457e-05  2.4699772e-05  4.1807698e-05  9.4285714    
     25700   0.0027240216   0.00020152016  4.6766803e-05  1.0099371e-05  4.0605734e-05  9.4285714    
     25800   0.0027482456   0.00017515521  4.9673623e-05  1.200996e-05   6.4583311e-05  9.4285714    
     25900   0.0027844054   0.00011760649  5.483093e-05   1.6551896e-05  5.6808661e-05  9.4285714    
     26000   0.0027288217   0.0001628807   4.1829136e-05  6.1987834e-06  5.3870483e-05  9.4285714    
     26100   0.0026438375   0.00021303401  3.7594125e-05  4.0053529e-06  5.2654376e-05  9.4285714    
     26200   0.0026581742   0.00015922234  3.8079888e-05  2.7915921e-06  3.7240692e-05  9.4285714    
     26300   0.0025564298   0.00013990838  2.9782437e-05  6.2141631e-06  5.3064931e-05  9.4285714    
     26400   0.0024601533   0.00015653907  4.0404159e-05  6.4939642e-06  6.384784e-05   9.4285714    
     26500   0.0023489527   0.00020979322  2.5845209e-05 -4.137801e-06   4.9468884e-05  9.4285714    
     26600   0.0023854717   0.00018364301  4.1204032e-05  1.3060558e-05  5.5630627e-05  9.4285714    
     26700   0.0024434178   0.00013414651  3.7008112e-05  4.4125612e-05  8.335619e-05   9.4285714    
     26800   0.0024172123   0.00016832659  2.4482306e-05  2.206761e-05   6.0662322e-05  9.4285714    
     26900   0.0020335584   0.00022815838  1.9542608e-05  4.1722884e-06  4.815625e-05   9.4285714    
     27000   0.0020700235   0.00014345234  9.3589569e-06  1.2155743e-05  3.6577934e-05  9.4285714    
     27100   0.0021808382   0.00013409804  2.6826375e-05  2.1686734e-05  7.0455928e-05  9.4285714    
     27200   0.0022497505   0.00026681738  3.013878e-05   1.6095225e-05  5.0454277e-05  9.4285714    
     27300   0.0023361296   0.00033861007  5.5376442e-06  2.2347899e-05 -7.373863e-06   9.4285714    
     27400   0.0026780668   0.00020412575  3.4392411e-05  4.0086465e-05  6.2041766e-05  9.4285714    
     27500   0.0028210749   0.00014630772  3.7057816e-05  3.6598763e-05  8.6543486e-05  9.4285714    
     27600   0.0027318381   0.00023367357  2.9348237e-05  4.393459e-05   3.9737765e-05  9.4285714    
     27700   0.0026793626   0.00027396494  4.7712124e-05  3.3447498e-05  3.8496669e-05  9.4285714    
     27800   0.0027648006   0.00015246011  2.7181792e-05  3.5017931e-05  5.6405909e-05  9.4285714    
     27900   0.0027615793   0.00013107653  3.3225821e-05  4.1628763e-05  6.8348447e-05  9.4285714    
     28000   0.0026108143   0.00024184908  4.4587108e-05  2.3448194e-05  5.5484379e-05  9.4285714    
     28100   0.0026218692   0.00024221298  2.6274684e-05  2.5279267e-05  2.9785851e-05  9.4285714    
     28200   0.002681997    0.0001787276   3.9045962e-05  4.4535919e-05  6.822525e-05   9.4285714    
     28300   0.0025065576   0.00021226327  1.5538521e-05  3.753651e-05   7.4313472e-05  9.4285714    
     28400   0.0022871344   0.00025807441  6.956681e-06   3.8236991e-05  3.7926419e-05  9.4285714    
     28500   0.0023422746   0.00020400094  2.7465852e-05  5.2660737e-05  6.4929789e-05  9.4285714    
     28600   0.0023674733   0.00019135387  1.9377825e-05  3.8848852e-05  6.0564114e-05  9.4285714    
     28700   0.0027093863   0.00016363491  1.7965198e-05  4.6223962e-05  3.7648136e-05  9.4285714    
     28800   0.0028113432   0.00029629323  2.030495e-05   5.2367889e-05  7.430705e-05   9.4285714    
     28900   0.0028873089   0.00027605409  2.1607173e-05  4.7240167e-05  3.6151996e-05  9.4285714    
     29000   0.0029338943   0.00017967537  3.2574356e-05  6.8286548e-05  7.0568146e-05  9.4285714    
     29100   0.0029075718   0.00017840481  3.4115186e-05  7.4168812e-05  6.7485687e-05  9.4285714    
     29200   0.0028086525   0.00024186861  3.113025e-05   4.6084756e-05  4.1065158e-05  9.4285714    
     29300   0.0026921937   0.00026675557  2.7975648e-05  6.4818833e-05  6.556654e-05   9.4285714    
     29400   0.0026388314   0.00029530063  2.7925615e-05  4.0803617e-05  8.4131925e-05  9.4285714    
     29500   0.0025535293   0.00034300671  2.3099688e-05 -4.0561888e-05  8.0220702e-05  9.4285714    
     29600   0.0025879786   0.00027415521  2.3377843e-05  6.5273977e-06  7.5607977e-05  9.4285714    
     29700   0.0026574351   0.00024835957  3.3663088e-05  4.5366958e-05  7.591901e-05   9.4285714    
     29800   0.0026851618   0.00020668526  3.1375007e-05  4.7927374e-05  8.9297163e-05  9.4285714    
     29900   0.002647186    0.00020395872  2.3048247e-05  3.3312329e-05  8.9803406e-05  9.4285714    
     30000   0.0026321803   0.00022403955  3.6505181e-05  4.5622995e-05  6.7854457e-05  9.4285714    
     30100   0.0027735527   0.00021050569  3.9791223e-05  5.8095122e-05  7.7806711e-05  9.4285714    
     30200   0.0030745568   0.00019753648  4.2533579e-05  2.7333708e-05  9.0527259e-05  9.4285714    
     30300   0.0031046589   0.00020641248  4.936414e-05   2.1415895e-05  8.3661557e-05  9.4285714    
     30400   0.0031010538   0.00019542839  5.0431878e-05  3.9064801e-05  9.6729942e-05  9.4285714    
     30500   0.0030685855   0.00021032183  5.1019793e-05  2.5344783e-05  9.3317672e-05  9.4285714    
     30600   0.0030433988   0.00021705716  4.5993365e-05  1.5298649e-05  7.5753381e-05  9.4285714    
     30700   0.0030625979   0.00017786603  4.6287133e-05  3.2198387e-05  8.804222e-05   9.4285714    
     30800   0.0030789646   0.00015875529  4.5426515e-05  4.233168e-05   9.0532379e-05  9.4285714    
     30900   0.0030449451   0.00018975207  4.2614179e-05  4.213002e-05   8.6048415e-05  9.4285714    
     31000   0.0030438571   0.00018035951  4.6453736e-05  3.6598499e-05  7.5269587e-05  9.4285714    
     31100   0.0030356685   0.00013136515  4.694214e-05   3.8696771e-05  8.0941301e-05  9.4285714    
     31200   0.0027627077   0.00017277034  3.4655157e-05  1.441149e-05   6.8971841e-05  9.4285714    
     31300   0.002625437    0.00039760945  3.6660111e-05  1.5109897e-05  5.9699621e-05  9.4285714    
     31400   0.0024728799   0.00057213922  4.0947956e-05  2.5782945e-05  7.7678791e-05  9.4285714    
     31500   0.0025823822   0.00042666321  3.939773e-05   1.164003e-05   5.2594461e-05  9.4285714    
     31600   0.0027673078   0.00019967758  4.1008758e-05  2.904779e-05   9.8973605e-05  9.4285714    
     31700   0.002793043    0.00018487826  3.8341923e-05  3.8399431e-05  7.9775798e-05  9.4285714    
     31800   0.0027212549   0.00029411041  3.7599126e-05  2.6656307e-05  6.2114615e-05  9.4285714    
     31900   0.002747271    0.00026784067  4.9654813e-05  3.4430391e-05  7.2919078e-05  9.4285714    
     32000   0.0028329249   0.00016008043  5.1034099e-05  3.7665312e-05  9.3320129e-05  9.4285714    
     32100   0.0027585101   0.00015365315  2.9514143e-05  3.9125571e-05  8.5151732e-05  9.4285714    
     32200   0.0024277705   0.00033551695 -2.4852574e-05  2.4161066e-05  2.4585582e-05  9.4285714    
     32300   0.0023188351   0.00029579041  1.4899361e-05  2.8160996e-05  3.7519761e-05  9.4285714    
     32400   0.0023247367   0.00023284084 -5.0010154e-07  2.2880365e-05  6.5038799e-05  9.4285714    
     32500   0.0023448303   0.00019860915  2.0520015e-05  3.0083973e-05  5.8138781e-05  9.4285714    
     32600   0.0023020739   0.00028503722  4.4659382e-05  4.0774706e-05  6.3498581e-05  9.4285714    
     32700   0.0023004738   0.00028017145  1.4658926e-05  3.0180401e-05  2.665435e-05   9.4285714    
     32800   0.0023571839   0.00018268884  3.1851685e-05  3.0493844e-05  9.5717516e-05  9.4285714    
     32900   0.0023457925   0.00016510621  2.6812302e-05  4.123499e-05   8.5030773e-05  9.4285714    
     33000   0.0022267468   0.00023861437  2.1129348e-05  2.8167596e-05  1.6437938e-05  9.4285714    
     33100   0.0021491654   0.00027431923  2.5042674e-05  2.1382612e-05  5.5549798e-05  9.4285714    
     33200   0.002275387    0.00018702266  2.3052405e-05  3.9454839e-05  5.0695919e-05  9.4285714    
     33300   0.0021914397   0.00018204821  1.6059478e-05  2.1606259e-05  6.3563589e-05  9.4285714    
     33400   0.002058157    0.00028263073  3.6823946e-05  2.2799974e-05  7.5281813e-05  9.4285714    
     33500   0.0020318208   0.00033792463  2.8167295e-06  2.5646117e-05  4.1453671e-05  9.4285714    
     33600   0.0020616419   0.00028095344  1.4426891e-05  3.1915651e-05  5.2829159e-05  9.4285714    
     33700   0.0020911099   0.00019651009  4.5927868e-05  4.2434904e-05  8.0577859e-05  9.4285714    
     33800   0.0019992394   0.00024448055  1.8354047e-05  2.3522161e-05  6.9999725e-05  9.4285714    
     33900   0.0018884335   0.00032469374  2.1156777e-05  2.585866e-05   5.1858169e-05  9.4285714    
     34000   0.0019528283   0.00026680445  1.3928691e-05  3.9177727e-05  5.2366025e-05  9.4285714    
     34100   0.0020095119   0.00016513193  2.562112e-05   3.5167771e-05  7.1606308e-05  9.4285714    
     34200   0.0018862874   0.00018863556  1.8465729e-05  1.0088123e-05  5.4496556e-05  9.4285714    
     34300   0.0018480935   0.00023550095  7.6281662e-06  1.3450423e-05  4.3678575e-05  9.4285714    
     34400   0.0018907902   0.00020520915  4.1654179e-05  3.1405809e-05  7.8038702e-05  9.4285714    
     34500   0.001854331    0.00017471341  3.592735e-05   2.661856e-05   3.3884063e-05  9.4285714    
     34600   0.0018327514   0.00018873363  1.3476691e-05  1.3684959e-05  5.7571261e-05  9.4285714    
     34700   0.001859929    0.000237816    2.0471714e-05  3.3852525e-05  6.7909067e-05  9.4285714    
     34800   0.0019511216   0.00025924645  1.5939107e-05  1.4799407e-05  1.3462289e-05  9.4285714    
     34900   0.0021432491   0.00021217134  2.1465724e-05  2.6648434e-05  7.4587912e-05  9.4285714    
     35000   0.0022301215   0.00016794431  3.4843774e-05  6.2556416e-05  5.2718206e-05  9.4285714    
     35100   0.0021830134   0.00018872893  2.4695225e-05  3.2962554e-05  3.8404931e-05  9.4285714    
     35200   0.0021630102   0.00019435781  1.9883199e-05  4.6310256e-05  7.063791e-05   9.4285714    
     35300   0.0021994065   0.00014570537  3.1070986e-05  4.7974531e-05  4.6700707e-05  9.4285714    
     35400   0.002182238    0.00014223616  2.9285173e-05  3.4272036e-05  6.3019444e-05  9.4285714    
     35500   0.0021447029   0.00018031518  2.1360022e-05  5.2529456e-05  7.2779391e-05  9.4285714    
     35600   0.002147817    0.00016844058  3.3363622e-05  4.4939986e-05  4.7108789e-05  9.4285714    
     35700   0.0021606223   0.00013852676  3.8035527e-05  4.6824675e-05  6.6319166e-05  9.4285714    
     35800   0.0021408165   0.00014375631  2.9789112e-05  5.2358127e-05  6.3516892e-05  9.4285714    
     35900   0.0020796887   0.00016453602  1.9517665e-05  3.0966785e-05  4.6990509e-05  9.4285714    
     36000   0.0020086205   0.00018282691  1.2726606e-05  2.6999305e-05  5.5624245e-05  9.4285714    
     36100   0.0019493947   0.00017787844  9.5804658e-06  1.9361728e-05  4.0521427e-05  9.4285714    
     36200   0.0019376888   0.00014920718  2.0493819e-05  2.0196815e-05  6.1498818e-05  9.4285714    
     36300   0.0019171835   0.00014304557  2.9471889e-05  2.443247e-05   5.4897304e-05  9.4285714    
     36400   0.001867021    0.00017031263  5.5000179e-06  4.6691656e-05  2.478896e-05   9.4285714    
     36500   0.0018380998   0.00016142024  2.5349876e-05  4.6500901e-05  4.33138e-05    9.4285714    
     36600   0.0018307627   0.00013526737  2.1393126e-05  3.4419516e-05  3.1097446e-05  9.4285714    
     36700   0.0017877862   0.00013793474 -1.5041156e-07  2.7698506e-05  2.7555302e-05  9.4285714    
     36800   0.0016426895   0.00017995625  2.152896e-05  -1.9044204e-05  3.347968e-05   9.4285714    
     36900   0.0014395017   0.00021063759  1.8356391e-05 -3.086375e-05   2.2719924e-05  9.4285714    
     37000   0.0013524131   0.00017563526  1.4451227e-05  1.9101577e-05  3.385175e-05   9.4285714    
     37100   0.0013682337   0.00017215042  2.2439548e-05 -2.2519278e-05  4.3417263e-05  9.4285714    
     37200   0.0014051113   0.00014840394  1.3655196e-05  3.4033836e-05  5.0098049e-05  9.4285714    
     37300   0.0014664406   0.00013289314  1.5439089e-06  1.7248133e-05  4.271086e-05   9.4285714    
     37400   0.0014648878   0.0001265848   1.7928987e-05  2.240562e-05   4.826054e-05   9.4285714    
     37500   0.001422811    0.00013359166  1.2466149e-05  3.1404728e-05  4.3450671e-05  9.4285714    
     37600   0.0014040928   0.00012428694  3.5833357e-06  2.0962937e-05  3.4399831e-05  9.4285714    
     37700   0.0014001822   0.00011091732  1.489477e-05   1.8294475e-05  7.3148398e-05  9.4285714    
     37800   0.0013880895   0.00011553468 -1.324206e-05   1.6169459e-05  2.8710173e-05  9.4285714    
     37900   0.001393517    0.00010926963  9.6693363e-07  2.488988e-05   3.0928958e-05  9.4285714    
     38000   0.0013993954   9.3789488e-05  2.7621107e-05  2.7667033e-05  7.2043625e-05  9.4285714    
     38100   0.0013871875   9.5329275e-05 -2.9482145e-06  1.9207572e-05  3.339529e-05   9.4285714    
     38200   0.0013550999   0.00011659596  6.0574067e-06  2.0252818e-05  5.7204376e-05  9.4285714    
     38300   0.0013742087   9.7678874e-05  1.9590409e-05  2.9678444e-05  6.6607948e-05  9.4285714    
     38400   0.0013871247   8.4367844e-05  2.2511038e-06  1.0402885e-05  4.9406414e-05  9.4285714    
     38500   0.0013784778   9.189528e-05   1.651188e-05   3.020932e-05   5.9608237e-05  9.4285714    
     38600   0.0013387233   0.00010007652  1.0667804e-05  2.6070195e-05  4.0004925e-05  9.4285714    
     38700   0.0013438832   9.5726621e-05  3.9995368e-06  1.1432222e-05  3.2818835e-05  9.4285714    
     38800   0.0013287952   0.00010219384  1.0718733e-05  3.5298025e-05  5.2802016e-05  9.4285714    
     38900   0.0013298425   0.00010151436  3.8676504e-06  1.9087341e-05  4.6216659e-05  9.4285714    
     39000   0.0013402917   9.0524509e-05  7.7185498e-06  1.5036646e-05  5.5086745e-05  9.4285714    
     39100   0.0013579905   7.9912452e-05  1.2792738e-05  3.0721942e-05  6.094625e-05   9.4285714    
     39200   0.0013831845   7.66028e-05    1.7771242e-05  2.048104e-05   4.1076281e-05  9.4285714    
     39300   0.0013931719   9.1609398e-05  1.5658362e-05  2.421664e-05   5.501262e-05   9.4285714    
     39400   0.0014451436   9.0050427e-05  4.9977819e-06  2.2290764e-05  5.1540598e-05  9.4285714    
     39500   0.0015101606   7.5770336e-05  1.4544193e-05  1.9801363e-05  4.7203386e-05  9.4285714    
     39600   0.0015868223   7.9975108e-05  2.8177701e-05  2.7709585e-05  6.4240954e-05  9.4285714    
     39700   0.0016524839   0.00011973851  1.6505328e-05  2.5492861e-05  5.4588308e-05  9.4285714    
     39800   0.00168189     0.00010879801  1.9458627e-05  2.9881192e-05  5.6933157e-05  9.4285714    
     39900   0.0017130353   7.4973864e-05  4.064945e-05   2.7272419e-05  6.5306813e-05  9.4285714    
     40000   0.001698942    7.9155335e-05  3.7322885e-05  2.6017686e-05  5.0984755e-05  9.4285714    
     40100   0.0016647094   9.1598291e-05  1.0758136e-05  2.4106257e-05  5.0694851e-05  9.4285714    
     40200   0.0016171596   9.9794787e-05  2.5005403e-05  6.8165436e-06  3.6712537e-05  9.4285714    
     40300   0.00161385     8.4247332e-05  2.7299423e-05  2.2785996e-05  3.327526e-05   9.4285714    
     40400   0.0016238979   8.7785721e-05  3.2621908e-05  2.6220075e-05  5.5830162e-05  9.4285714    
     40500   0.0016061499   0.00011740285  3.4918694e-05  2.1160387e-05  6.0484532e-05  9.4285714    
     40600   0.001607185    8.7477774e-05  3.2231847e-05  2.6491864e-05  5.2292107e-05  9.4285714    
     40700   0.0016092862   6.6376852e-05  4.2084194e-05  2.4498275e-05  6.004735e-05   9.4285714    
     40800   0.001605662    7.4346584e-05  3.3931074e-05  2.2574532e-05  5.8095099e-05  9.4285714    
     40900   0.0015951514   9.0516589e-05  3.5564243e-05  9.080715e-06   5.025487e-05   9.4285714    
     41000   0.0016137935   7.2639976e-05  3.8192899e-05  9.793136e-06   5.9601871e-05  9.4285714    
     41100   0.0016168577   5.9030685e-05  3.5129252e-05  1.7955381e-05  5.7674359e-05  9.4285714    
     41200   0.0015533796   8.2645638e-05  3.0645973e-05  4.9960157e-06  4.6436763e-05  9.4285714    
     41300   0.0015228321   9.2416539e-05  6.5438245e-06  6.5314577e-06  4.4655329e-05  9.4285714    
     41400   0.0014951748   9.9856067e-05  2.4816786e-05  1.1155833e-05  3.5507794e-05  9.4285714    
     41500   0.0014731081   8.2918162e-05  1.0512551e-05  1.2117159e-05  4.2709127e-05  9.4285714    
     41600   0.001370346    8.8011328e-05 -2.9241336e-05  1.870189e-05   3.9438421e-05  9.4285714    
     41700   0.001268923    0.00012911338  1.2759838e-05  2.079028e-05   4.1109574e-05  9.4285714    
     41800   0.0012355364   0.00017409623 -1.1989559e-05  1.6400755e-05  5.2605522e-05  9.4285714    
     41900   0.0012554549   0.00016168572 -6.6517485e-06  2.6854132e-05  6.1516817e-05  9.4285714    
     42000   0.0013391249   7.8655755e-05  2.4921139e-05  2.5325344e-05  7.3231e-05     9.4285714    
     42100   0.0014334742   6.3694286e-05 -8.6608777e-07  2.41479e-05    6.6413319e-05  9.4285714    
     42200   0.0014857404   0.00012175019 -3.1657672e-07  3.1871002e-05  6.2533418e-05  9.4285714    
     42300   0.0014521019   0.0001319563   1.111453e-05   1.2661453e-05  7.513701e-05   9.4285714    
     42400   0.0014807596   9.617248e-05   6.7768074e-06  1.0651229e-05  7.2312995e-05  9.4285714    
     42500   0.0014676733   0.00012537761  2.2528183e-05  2.8721354e-05  8.134787e-05   9.4285714    
     42600   0.001472686    0.00012264189  2.3065842e-05  2.1321727e-05  6.2633415e-05  9.4285714    
     42700   0.0015101474   8.5665799e-05  2.2369812e-05  3.7555256e-05  6.7687302e-05  9.4285714    
     42800   0.0015036187   8.7611619e-05  2.8416579e-05  2.6339009e-05  8.7521896e-05  9.4285714    
     42900   0.0014823714   0.00010955667  1.6708209e-05  8.6490111e-06  7.2855132e-05  9.4285714    
     43000   0.001454122    0.0001101498   2.3786906e-05  2.9819093e-05  5.5163422e-05  9.4285714    
     43100   0.0014382806   0.00010123603  2.3888629e-05  3.0566257e-05  5.5989709e-05  9.4285714    
     43200   0.0014330613   0.00010651751  2.26693e-05    2.0474256e-05  5.5540519e-05  9.4285714    
     43300   0.0014336702   0.00012337605  2.0310265e-05  2.641583e-05   6.3166868e-05  9.4285714    
     43400   0.0014612055   9.9215435e-05  6.3876172e-06  2.9747692e-05  6.5143048e-05  9.4285714    
     43500   0.0014381963   8.9424966e-05  3.646135e-05   1.8918293e-05  4.5013948e-05  9.4285714    
     43600   0.0014424519   0.00012217586  2.9912999e-05  3.2200076e-05  4.0586106e-05  9.4285714    
     43700   0.001507993    0.00018274757 -4.9896949e-07  3.0430201e-05  4.2722366e-05  9.4285714    
     43800   0.0016703939   0.00018805033  2.1367159e-05  2.2689132e-05  2.8813304e-05  9.4285714    
     43900   0.00183729     0.00012813285  2.7816086e-05  5.3159135e-05  4.0418574e-05  9.4285714    
     44000   0.0018429111   0.00012464193  2.2084178e-05  4.8524763e-05  7.0409557e-05  9.4285714    
     44100   0.001797278    0.00014485641  3.2996977e-05  3.7536246e-05  3.8439852e-05  9.4285714    
     44200   0.0018094739   0.00013479783  3.0808166e-05  4.9260795e-05  4.5481024e-05  9.4285714    
     44300   0.0018167511   0.00010190188  3.9673666e-05  2.8469269e-05  8.4194766e-05  9.4285714    
     44400   0.0017995104   0.00010688065  2.0820793e-05  2.4385658e-05  5.4738685e-05  9.4285714    
     44500   0.0017632235   0.00013080347  4.1495823e-05  4.7757365e-05  3.9134662e-05  9.4285714    
     44600   0.0017500569   0.00012300366  3.1936572e-05  3.7059787e-05  4.1534906e-05  9.4285714    
     44700   0.0014114867   0.00014446559  2.1971271e-05  2.6216922e-05  6.2825498e-05  9.4285714    
     44800   0.001368004    0.00016021321  6.3078291e-05  3.0571629e-05  6.3213137e-05  9.4285714    
     44900   0.0014080683   0.00013923912  1.905968e-05   2.7264255e-05  5.8740744e-05  9.4285714    
     45000   0.0014607431   0.00010456452  2.1331162e-05  6.5113465e-06  5.1413707e-05  9.4285714    
     45100   0.001421555    0.0001272488   3.7502278e-05  2.0487226e-05  7.6576357e-05  9.4285714    
     45200   0.0014579148   0.00010641217  1.767725e-06   3.0492128e-06  6.3189065e-05  9.4285714    
     45300   0.0014862656   0.00010628948  3.1606396e-05  2.2387153e-05  5.9221789e-05  9.4285714    
     45400   0.0015262974   0.00010367207  5.0422806e-05  2.9219832e-05  6.8289925e-05  9.4285714    
     45500   0.0015947606   8.674387e-05   3.3199712e-05  9.9223276e-06  6.7481615e-05  9.4285714    
     45600   0.001653798    9.3131329e-05  4.6622283e-05  2.7993509e-05  7.1333747e-05  9.4285714    
     45700   0.001722873    8.9713275e-05  3.4515677e-05  3.1232922e-05  7.0656429e-05  9.4285714    
     45800   0.0018060527   8.2597279e-05  3.1997277e-05  2.2476854e-06  6.8997203e-05  9.4285714    
     45900   0.0018001671   9.3787249e-05  3.4312083e-05 -2.431378e-07   6.647328e-05   9.4285714    
     46000   0.0017154859   0.00013341695  4.7123212e-06 -3.3476925e-06  5.4064114e-05  9.4285714    
     46100   0.0016819575   0.00017112511  3.0763382e-05  1.7159174e-05  5.2646523e-05  9.4285714    
     46200   0.0017046952   0.00016507409  4.2821276e-05  1.8964733e-05  5.2871633e-05  9.4285714    
     46300   0.0017411508   0.00011583196  2.876228e-05   1.6745436e-05  3.5427464e-05  9.4285714    
     46400   0.0016892786   0.0001208479   5.1581254e-05  5.480617e-05   4.0808691e-05  9.4285714    
     46500   0.0016003123   0.00018831881  4.2496709e-05  3.7761175e-06  3.2449064e-05  9.4285714    
     46600   0.001602929    0.00018394679  2.5198769e-05  6.270228e-06   3.1860398e-05  9.4285714    
     46700   0.0016698645   0.00013594977  4.9655716e-05  4.9479865e-05  7.2220191e-05  9.4285714    
     46800   0.0017087228   0.00012418482  5.0521954e-05  2.1495391e-05  2.9274091e-05  9.4285714    
     46900   0.0016751691   0.00019323598  3.3113154e-05  3.2429791e-05  2.3379647e-05  9.4285714    
     47000   0.001771755    0.00018015019  5.3997324e-05  4.1018486e-05  4.0292223e-05  9.4285714    
     47100   0.0019277728   0.00010200338  7.9310759e-05  4.0250911e-05  3.5143088e-05  9.4285714    
     47200   0.0019621852   0.00011778144  7.2347467e-05  5.5272367e-05  5.1089305e-05  9.4285714    
     47300   0.0018376309   0.00018878904  4.9999235e-05  2.8646716e-05  5.4202116e-05  9.4285714    
     47400   0.0018087857   0.00020509757  4.1062074e-05  7.326014e-06   4.8275543e-05  9.4285714    
     47500   0.0017742907   0.00017486747  4.1102539e-05  1.4098953e-05  4.8723306e-05  9.4285714    
     47600   0.0014962521   0.00015624644  1.9582474e-05  1.9859411e-05  2.951904e-05   9.4285714    
     47700   0.0014007295   0.00016508256  2.2487566e-05  3.6083051e-05  2.4099653e-05  9.4285714    
     47800   0.0015165235   0.00017196914  3.6258431e-05  1.1643539e-05  4.2828614e-05  9.4285714    
     47900   0.0015407167   0.00015338269  2.9474353e-05  1.2843735e-05  4.1043842e-05  9.4285714    
     48000   0.0015472302   0.00012053302  1.4010013e-05  5.0840323e-05  2.9262181e-05  9.4285714    
     48100   0.0015345397   0.00012884559  1.4338186e-05  3.6267259e-05  3.2368928e-05  9.4285714    
     48200   0.0016388554   0.00016382672  3.91146e-05    1.8662625e-05  4.8326115e-05  9.4285714    
     48300   0.001777587    0.00017697216  4.9707633e-05  4.666011e-05   2.9347305e-05  9.4285714    
     48400   0.0015197435   0.00019305563  9.8227212e-06  7.5329599e-05  3.8463863e-05  9.4285714    
     48500   0.0015442919   0.00020163083  3.1691005e-05  5.6980055e-05  7.319156e-05   9.4285714    
     48600   0.0015681388   0.00016940656  4.8134017e-05  3.351289e-05   6.4963459e-05  9.4285714    
     48700   0.001456471    0.00022838532  1.6876432e-05  3.4724145e-05  5.2253919e-05  9.4285714    
     48800   0.0015226538   0.00014930862  2.9493704e-05  5.7094987e-05  3.1160699e-05  9.4285714    
     48900   0.0015154449   0.00012935872  3.9192816e-05  2.6859323e-05  7.0473258e-05  9.4285714    
     49000   0.0013724821   0.00022270651 -8.5905251e-06 -2.622945e-05   6.3210166e-05  9.4285714    
     49100   0.0013114142   0.00020819371 -8.0849758e-06 -1.6715568e-05  1.1151585e-05  9.4285714    
     49200   0.0012961101   0.00015989262 -1.0946983e-05  2.5608771e-05  3.7671947e-05  9.4285714    
     49300   0.001247934    0.00014529599 -6.0010315e-06  1.9683654e-05  4.3130892e-05  9.4285714    
     49400   0.0011619721   0.00022444398  1.5847927e-05 -1.3477406e-05  2.253417e-05   9.4285714    
     49500   0.0011468119   0.00023695241 -3.7039379e-06  1.4327053e-05  4.1474398e-05  9.4285714    
     49600   0.0012067203   0.00016733557  9.2790614e-07  2.5839586e-05  1.6014419e-05  9.4285714    
     49700   0.0012581279   0.00014646585  2.2060604e-05  1.647479e-05   1.6252769e-05  9.4285714    
     49800   0.0012077975   0.00020513164  1.1291091e-05  2.3983057e-05  5.4254723e-05  9.4285714    
     49900   0.0011787337   0.00021511752 -4.6248431e-06  1.5734389e-05  5.054625e-06   9.4285714    
     50000   0.0012549505   0.00012497876  1.8622104e-05  4.180007e-05   3.2606464e-05  9.4285714    
     50100   0.0012684719   0.0001005357   2.6449292e-05  5.0481659e-05  8.0862614e-05  9.4285714    
     50200   0.0011911348   0.0001719871   2.5817169e-06  1.6950542e-05  2.4531188e-05  9.4285714    
     50300   0.0011796434   0.00016995606  2.0592316e-05  3.014346e-05   2.1762171e-05  9.4285714    
     50400   0.0012029835   0.0001053368   1.3079472e-05  3.7466183e-05  4.6630894e-05  9.4285714    
     50500   0.0011098709   0.00013061317 -3.2632536e-05  2.8581482e-06  3.3986146e-05  9.4285714    
     50600   0.0010686828   0.0001331945   6.9280978e-06  2.7203062e-05  3.0979577e-05  9.4285714    
     50700   0.0010614007   0.00014134329  3.368492e-05   2.5017244e-05  2.3921408e-05  9.4285714    
     50800   0.0011277555   9.9836791e-05  1.5139952e-05  1.7617717e-05  2.8056088e-05  9.4285714    
     50900   0.0010670414   0.00010541888  2.9760683e-05  3.2160995e-05  4.9711739e-05  9.4285714    
     51000   0.0010021439   0.00014104143  2.1473296e-05  1.6303237e-05 -8.1231163e-06  9.4285714    
     51100   0.0010277051   0.00013305535  3.1364131e-06  1.4346432e-05  3.0613411e-06  9.4285714    
     51200   0.0010885757   0.00011224545  1.132945e-05   3.33477e-05    0.00010541358  9.4285714    
     51300   0.0011102904   0.00010153827  2.9584916e-05  2.2193503e-05  3.3622177e-05  9.4285714    
     51400   0.0010483154   0.00012395369  1.5647452e-06  1.0390394e-05  2.420933e-05   9.4285714    
     51500   0.0010427354   0.00013595691  2.542171e-05   1.8287511e-05  4.9141635e-05  9.4285714    
     51600   0.0010525329   0.00016623644  1.9760233e-05  1.6231695e-05  2.5107707e-05  9.4285714    
     51700   0.001051132    0.00018491283  2.2144613e-05  1.6023111e-05  2.7971558e-05  9.4285714    
     51800   0.0010830169   0.0001451008   4.5585207e-05  1.484986e-05   3.4685648e-05  9.4285714    
     51900   0.0011147655   0.00010664745  3.6281145e-05  1.5848105e-05  4.3919485e-05  9.4285714    
     52000   0.0010901353   0.00012461893  2.3299896e-05  2.2332502e-05  5.0021336e-05  9.4285714    
     52100   0.0010597436   0.00014550258  2.9462185e-05  1.5629592e-05  1.3251098e-05  9.4285714    
     52200   0.0010727007   0.00012339588  2.7166006e-05  1.3714897e-05  3.1634439e-05  9.4285714    
     52300   0.0010949598   8.5868285e-05  2.3481853e-05  1.2155529e-05  5.7684698e-05  9.4285714    
     52400   0.0010604134   9.5376841e-05  2.7075947e-05  1.108608e-05   1.9394677e-05  9.4285714    
     52500   0.00099680957  0.00014397603  2.2213559e-05  1.769424e-05   1.4409611e-05  9.4285714    
     52600   0.001000606    0.00013610691  2.0436358e-05  4.9511401e-06  1.6050172e-05  9.4285714    
     52700   0.0010483705   0.00011360928  1.1199095e-05 -9.4399531e-06  7.1449804e-06  9.4285714    
     52800   0.0011240801   0.00010281851  2.6363276e-05  1.1437208e-05  2.5808101e-05  9.4285714    
     52900   0.0011970116   0.00010561217  3.0197821e-05  9.9929852e-06  2.373311e-05   9.4285714    
     53000   0.0012858038   9.2754644e-05  1.0734511e-05  2.3005237e-05  3.4095576e-05  9.4285714    
     53100   0.0013037632   9.0765133e-05  1.8969859e-05  3.0364439e-05  5.0814228e-05  9.4285714    
     53200   0.0013151167   8.3472599e-05  3.8567739e-05  2.4514412e-05  3.6198867e-05  9.4285714    
     53300   0.0013094922   8.728796e-05   2.8396756e-05  3.4245968e-05  4.0685309e-05  9.4285714    
     53400   0.0013100621   8.5809073e-05  2.4515824e-05  2.9352125e-05  4.7158236e-05  9.4285714    
     53500   0.0013241395   6.9379747e-05  3.8101473e-05  3.0987709e-05  3.78e-05       9.4285714    
     53600   0.00131112     7.337469e-05   3.7413099e-05  3.1220024e-05  4.1256791e-05  9.4285714    
     53700   0.0012899462   8.3490211e-05  2.6592554e-05  2.1432422e-05  3.5164258e-05  9.4285714    
     53800   0.0012946253   7.2135807e-05  2.1859067e-05  2.6499233e-05  2.8218603e-05  9.4285714    
     53900   0.0012817159   6.5285324e-05  3.0784887e-05  2.5302277e-05  4.0633351e-05  9.4285714    
     54000   0.0012366116   9.6396035e-05  3.2110568e-05  1.7625576e-05  2.5037425e-05  9.4285714    
     54100   0.0012294472   0.00010707886  1.8517183e-05  2.9080669e-05  3.2433268e-05  9.4285714    
     54200   0.0012104745   8.576317e-05   7.0709612e-06  3.5814904e-05  4.5168414e-05  9.4285714    
     54300   0.0011452209   7.1856172e-05  7.8526019e-06  1.8236038e-05  3.4683496e-05  9.4285714    
     54400   0.001147964    8.5994092e-05  1.3604772e-05  1.5756574e-05  3.1784275e-05  9.4285714    
     54500   0.0011425252   9.760165e-05   1.4231807e-05  2.6316429e-05  3.6348346e-05  9.4285714    
     54600   0.0011319698   8.210721e-05  -1.0104411e-06  2.5092421e-05  3.4844575e-05  9.4285714    
     54700   0.0011012822   9.2370803e-05 -2.7379039e-07  3.3754562e-05  3.820945e-05   9.4285714    
     54800   0.0010835451   9.7391517e-05  1.4560956e-05  3.4344009e-05  2.524656e-05   9.4285714    
     54900   0.0010556829   9.9853509e-05  1.6097773e-05  1.4715342e-05  1.3328583e-05  9.4285714    
     55000   0.00096002756  0.00012553071 -1.820739e-05  -3.7466573e-05  5.2231714e-06  9.4285714    
     55100   0.00087401897  0.00016911005 -1.7370043e-05 -3.6885354e-05 -1.2051004e-05  9.4285714    
     55200   0.00091962211  0.0001227102   3.6653596e-06 -7.974917e-06   1.1908122e-05  9.4285714    
     55300   0.00094600608  8.8639078e-05  1.3422329e-05  1.7880974e-05  1.5075474e-05  9.4285714    
     55400   0.00089849888  8.3956028e-05  2.3114796e-05  3.2316014e-05  8.6238077e-06  9.4285714    
     55500   0.00082530644  0.00013221663 -7.7965123e-06 -2.0613249e-05  3.3655205e-05  9.4285714    
     55600   0.00085574284  0.00016747607  2.7561178e-06 -1.8901732e-05  1.0976814e-05  9.4285714    
     55700   0.00094080425  0.00014341517  1.9744621e-05  2.4798188e-05  1.8477129e-05  9.4285714    
     55800   0.0010279539   0.000103424   -6.1250393e-07  8.7931995e-06 -4.0948591e-06  9.4285714    
     55900   0.0010095986   0.00011702149  2.7056481e-05  2.7581682e-05  5.8332344e-06  9.4285714    
     56000   0.0010164569   0.00011510482  6.6511865e-06  3.7936141e-05  2.4048744e-05  9.4285714    
     56100   0.0010227606   9.1930565e-05  1.9445306e-05  2.3576504e-05 -1.4207308e-06  9.4285714    
     56200   0.0010093908   9.3074482e-05  2.4857238e-05  3.7379578e-05  3.1429593e-05  9.4285714    
     56300   0.00099402939  0.00010120536 -3.7086513e-06  3.0612546e-05  2.6589354e-05  9.4285714    
     56400   0.0009848085   0.00010476903  1.8055194e-05  2.3240376e-05  6.464421e-06   9.4285714    
     56500   0.00099816515  8.4083615e-05  1.1139499e-05  3.2755669e-05  3.3376267e-05  9.4285714    
     56600   0.00099881854  6.4328912e-05 -8.0812239e-07  2.1031117e-05  2.7673208e-05  9.4285714    
     56700   0.00098055165  7.2004112e-05  3.2092353e-06  1.8683943e-05  1.700391e-05   9.4285714    
     56800   0.0009568016   8.2841975e-05 -4.9822878e-06  2.1807379e-05  2.0806057e-05  9.4285714    
     56900   0.00096837971  6.8086697e-05  1.2155945e-05  1.4382283e-05  3.009754e-05   9.4285714    
     57000   0.00097184031  5.9506123e-05  1.3458868e-05  2.3003208e-05  3.8167133e-05  9.4285714    
     57100   0.0010102459   8.1046423e-05 -1.0682216e-06  2.1012163e-05  3.6859899e-05  9.4285714    
     57200   0.001266571    8.2956659e-05  1.6312375e-05  2.6418449e-05  3.5770364e-05  9.4285714    
     57300   0.0013762653   5.1835748e-05  2.0915817e-05  4.6820956e-05  3.8859248e-05  9.4285714    
     57400   0.0013663899   4.7951942e-05  3.1055299e-05  4.2356558e-05  4.1202084e-05  9.4285714    
     57500   0.0013066431   8.4878409e-05  3.6892825e-05  3.3511804e-05  3.6847354e-05  9.4285714    
     57600   0.0012912372   0.00010381892  3.3801697e-05  4.0536654e-05  3.0733733e-05  9.4285714    
     57700   0.0013107599   7.1767015e-05  3.2660126e-05  3.9782822e-05  3.3107407e-05  9.4285714    
     57800   0.0012815232   5.4022757e-05  1.6639318e-05  3.1134127e-05  3.6444807e-05  9.4285714    
     57900   0.0011642736   0.00011524895 -1.5686892e-05 -1.2236939e-05  4.3675303e-05  9.4285714    
     58000   0.001133888    0.00010588096  2.1735066e-05  1.5037133e-05  4.4057647e-05  9.4285714    
     58100   0.0011593389   8.5999562e-05  2.3183756e-05  2.3836959e-05  2.8941734e-05  9.4285714    
     58200   0.0011970381   6.1815947e-05  1.8294306e-05  2.8777169e-05  4.9985966e-05  9.4285714    
     58300   0.0011812957   6.7268996e-05  6.6023253e-05  2.3784554e-05  5.2874426e-05  9.4285714    
     58400   0.0011668175   7.397832e-05   2.7324772e-05  1.9404861e-05  2.7991299e-05  9.4285714    
     58500   0.0011657359   7.0380685e-05  3.4764033e-05  2.8961453e-05  4.7780711e-05  9.4285714    
     58600   0.0011875228   6.8180363e-05  4.0915549e-05  6.9115899e-06  5.2530663e-05  9.4285714    
     58700   0.00120982     5.3525291e-05  2.2321676e-05  1.7581127e-05  4.2202705e-05  9.4285714    
     58800   0.0012037625   7.9312503e-05  4.2337069e-05  3.5792245e-05  5.6108742e-05  9.4285714    
     58900   0.0012286906   7.6440815e-05  1.7160706e-05  1.8441204e-05  4.5561063e-05  9.4285714    
     59000   0.0012326666   5.0314136e-05  3.6080329e-05  3.1340577e-05  4.5774381e-05  9.4285714    
     59100   0.0010821261   9.3509176e-05  1.7321676e-05 -1.0350775e-05  4.4801203e-05  9.4285714    
     59200   0.0009639844   0.00016232072 -6.8474538e-06 -4.0093804e-05  2.6148417e-05  9.4285714    
     59300   0.00092780547  0.00022010989  2.8260326e-05 -1.2304828e-05  4.1675205e-05  9.4285714    
     59400   0.00094182397  0.00021305399  1.2339045e-05  8.2680367e-07  4.9201583e-05  9.4285714    
     59500   0.0010333647   0.0001088605   1.2423113e-05  1.1539518e-05  4.2872213e-05  9.4285714    
     59600   0.0010599884   7.3470239e-05  3.9852254e-05  4.2263672e-05  5.4728173e-05  9.4285714    
     59700   0.0010796433   7.2340918e-05  1.3409721e-05  1.4285684e-05  4.1020231e-05  9.4285714    
     59800   0.0010322959   0.00011394971  1.1272738e-05  1.5381896e-05  3.426103e-05   9.4285714    
     59900   0.0010264628   7.6035732e-05  1.5088353e-05  1.9484495e-05  4.5393753e-05  9.4285714    
     60000   0.0010226796   6.1741442e-05 -6.8704854e-07  2.5269441e-05  5.1430609e-05  9.4285714    
     60100   0.00098188475  9.892303e-05   2.9816485e-05  3.6697054e-05  4.5219566e-05  9.4285714    
     60200   0.00098790701  0.00011144707  2.8636381e-05  2.3910783e-05  2.7978188e-05  9.4285714    
     60300   0.0010208577   7.463245e-05   1.0249857e-05  3.0538964e-05  4.9479251e-05  9.4285714    
     60400   0.0010151847   5.0023797e-05  3.1525147e-05  2.9433007e-05  7.8164038e-05  9.4285714    
     60500   0.00089777335  9.4283518e-05  3.5737091e-05  1.4909764e-05  4.2470744e-05  9.4285714    
     60600   0.00087762466  0.00011343508  2.3306406e-05  1.4211654e-05  3.2737411e-05  9.4285714    
     60700   0.00085580411  0.00013261763  5.2957817e-06  1.6172307e-05  5.3138822e-05  9.4285714    
     60800   0.00085288965  0.00012798769  7.8037221e-06  1.794135e-05   8.6648957e-06  9.4285714    
     60900   0.00086510579  9.9608574e-05  3.2956019e-05  1.6924127e-05  1.3030552e-05  9.4285714    
     61000   0.00085500116  9.439067e-05   5.5791399e-06  1.6164828e-05  4.0745433e-05  9.4285714    
     61100   0.00080518648  0.00012740649 -1.159619e-05   2.6148253e-05  2.7619634e-05  9.4285714    
     61200   0.0007804046   0.00014049387  3.536877e-07   1.5071902e-05  2.153603e-05   9.4285714    
     61300   0.00082215176  9.5640575e-05  1.4877806e-05  2.1501878e-05  2.8751404e-05  9.4285714    
     61400   0.00081453927  8.8829866e-05  2.1107522e-05  2.5693243e-05  4.6273388e-05  9.4285714    
     61500   0.00079709318  0.00010534787  4.2063751e-06  3.6323211e-06  3.76851e-05    9.4285714    
     61600   0.00077559283  0.00010834984  8.8869175e-06  1.0998304e-05  2.3991921e-05  9.4285714    
     61700   0.00079319052  9.253937e-05   1.2815047e-05  1.8179794e-05  3.0323623e-05  9.4285714    
     61800   0.0008041623   7.5414048e-05  1.2414484e-05  1.4167792e-05  2.9906628e-05  9.4285714    
     61900   0.0007860066   8.8913474e-05  3.2961745e-06  1.1906672e-05  3.8201838e-05  9.4285714    
     62000   0.00076191121  0.00010431776  1.8960305e-06  1.5849845e-05  3.1542816e-05  9.4285714    
     62100   0.00078165297  8.1059221e-05  8.5279463e-06  2.3442502e-05  1.9321926e-05  9.4285714    
     62200   0.00078168162  7.1679192e-05  8.6455814e-06  9.7473937e-06  3.1969435e-05  9.4285714    
     62300   0.00073445435  9.1117359e-05  1.0740094e-05 -3.9958103e-06  1.4490257e-05  9.4285714    
     62400   0.00071086773  0.00010685566 -5.0155167e-06  7.2814998e-06 -1.3596525e-05  9.4285714    
     62500   0.00072611985  9.0937772e-05 -4.1224985e-07  2.1710467e-05  2.2167972e-05  9.4285714    
     62600   0.00070222137  8.690392e-05  -8.0071942e-06 -5.5137474e-06  3.5082634e-05  9.4285714    
     62700   0.00066800334  8.639884e-05  -2.4557771e-05 -1.695675e-05   1.7099038e-05  9.4285714    
     62800   0.00065978825  8.5604845e-05 -6.0234401e-06 -1.4899763e-05  2.3730008e-05  9.4285714    
     62900   0.00065494177  9.3339743e-05  3.7533794e-08 -1.9707583e-05  1.7715804e-05  9.4285714    
     63000   0.00063520565  0.00010396996  8.1003165e-07 -2.8612149e-05  2.5121436e-05  9.4285714    
     63100   0.00065249851  8.3768697e-05  8.4477431e-06 -2.4804531e-05  2.9541924e-05  9.4285714    
     63200   0.00064707189  8.3674114e-05  5.7468664e-06  2.657384e-06   1.7618689e-05  9.4285714    
     63300   0.00063976756  8.0865255e-05 -2.3325506e-06 -8.3641076e-06  2.8902099e-05  9.4285714    
     63400   0.00064929056  6.9077302e-05  7.2472277e-06 -3.9624372e-06  2.1897062e-05  9.4285714    
     63500   0.00063295185  6.4401629e-05 -2.5208282e-06 -3.2828382e-06  1.4943887e-05  9.4285714    
     63600   0.00060730126  6.4753213e-05 -1.0430931e-05 -7.7793433e-06  2.0842788e-05  9.4285714    
     63700   0.00059671286  6.647345e-05   2.4119854e-06 -1.204533e-06   8.8943447e-06  9.4285714    
     63800   0.00059619619  7.0590425e-05 -4.5528688e-06 -1.3001907e-05  1.3684213e-05  9.4285714    
     63900   0.00058465592  7.9288204e-05 -2.9804564e-06 -7.5368741e-06  2.5507714e-05  9.4285714    
     64000   0.00059247977  6.5049402e-05  1.6727425e-06 -6.6215543e-06  2.3030778e-05  9.4285714    
     64100   0.00058990963  5.4524165e-05  3.4027801e-06 -1.2671194e-05  2.5600232e-05  9.4285714    
     64200   0.00054208681  7.0775802e-05  9.9377638e-06 -9.4768961e-06  6.9795174e-06  9.4285714    
     64300   0.0005084341   8.1671738e-05  5.692583e-06  -2.5628597e-05  6.4498234e-06  9.4285714    
     64400   0.00049325768  7.6208512e-05  9.0738736e-06 -6.4765808e-06  1.9641992e-05  9.4285714    
     64500   0.00050022755  6.7102662e-05  1.5189481e-05  8.6467085e-06  7.9560378e-06  9.4285714    
     64600   0.00047699526  7.5315635e-05  1.1918027e-05 -1.2853456e-05  7.5516063e-07  9.4285714    
     64700   0.00046353249  7.737625e-05  -9.7615609e-06 -1.1724364e-05  9.8497341e-06  9.4285714    
     64800   0.00044993573  7.1723955e-05 -2.0204492e-05 -1.1642494e-05  6.2791748e-07  9.4285714    
     64900   0.00046354048  5.6932911e-05 -1.4389766e-05 -9.0468255e-06  3.1129357e-06  9.4285714    
     65000   0.00043617211  7.3561097e-05 -2.0529478e-05  3.5387797e-06  5.9308643e-06  9.4285714    
     65100   0.00043037745  7.1036316e-05 -2.0109456e-05 -2.2699794e-05  2.3712811e-06  9.4285714    
     65200   0.00043857129  5.2676201e-05 -1.8825841e-06  7.0791692e-07  8.1907417e-06  9.4285714    
     65300   0.00042235388  6.2660119e-05 -1.0560326e-05  1.1543017e-05 -4.712514e-08   9.4285714    
     65400   0.00040408251  7.7969416e-05 -2.8083557e-06 -1.9043018e-05 -6.0861724e-06  9.4285714    
     65500   0.00041671348  6.3142638e-05 -3.8760937e-06 -2.1969103e-06  1.3536444e-06  9.4285714    
     65600   0.00041232768  5.0898193e-05 -1.1936762e-05  9.5798147e-07 -2.6962384e-06  9.4285714    
     65700   0.00038739775  6.2424941e-05  1.8375674e-06 -1.6628638e-05 -9.0070148e-06  9.4285714    
     65800   0.00037355444  7.0357677e-05  2.9636195e-07 -9.1977872e-06 -8.6445506e-06  9.4285714    
     65900   0.00037328493  5.9242249e-05 -3.0159192e-06 -8.5267187e-06 -6.0272428e-06  9.4285714    
     66000   0.00036889978  4.8725875e-05  6.1920872e-07 -6.380333e-06  -4.4199201e-06  9.4285714    
     66100   0.00034751305  6.0005689e-05 -3.6943534e-06 -1.6709414e-05 -8.4391107e-06  9.4285714    
     66200   0.00034255195  6.1516973e-05 -6.092046e-06  -4.0468096e-05 -6.1060895e-06  9.4285714    
     66300   0.00035169212  4.5412882e-05 -1.1157962e-05 -2.5319318e-05  9.3333094e-08  9.4285714    
     66400   0.00031811731  4.6344251e-05 -2.0148041e-05 -2.3499629e-05 -5.8037748e-06  9.4285714    
     66500   0.00032189285  4.4500306e-05 -1.8744694e-05 -2.2672459e-05 -9.2302354e-06  9.4285714    
     66600   0.00033651301  3.5071657e-05 -9.3968604e-06  1.7757302e-05  8.0420639e-06  9.4285714    
     66700   0.00033206008  3.9621392e-05 -3.5304336e-06 -9.1438836e-06  5.3873536e-06  9.4285714    
     66800   0.00032900223  3.8876588e-05 -5.4429732e-06 -1.2835065e-05  9.0926255e-07  9.4285714    
     66900   0.00032941329  2.976798e-05  -9.2419055e-06  1.6715176e-05  9.9900247e-06  9.4285714    
     67000   0.00031986963  3.1094664e-05 -8.7125767e-06 -2.2444669e-05  5.5303438e-06  9.4285714    
     67100   0.00031067821  3.9008028e-05 -8.930353e-06  -1.7901603e-05  4.5571953e-06  9.4285714    
     67200   0.00031767349  3.2391847e-05 -1.3237717e-05 -3.809406e-06   7.8863723e-06  9.4285714    
     67300   0.00031804118  3.1779741e-05 -6.0251252e-06 -1.7469128e-05  5.8707395e-06  9.4285714    
     67400   0.00031721801  3.1629126e-05  2.6926684e-07 -1.3451465e-06  8.6277214e-06  9.4285714    
     67500   0.0003056958   3.1441703e-05 -9.6212364e-06 -7.0248665e-06  2.4650487e-06  9.4285714    
     67600   0.00028099217  3.6855755e-05 -2.2040942e-05 -1.4710073e-05 -1.2384849e-05  9.4285714    
     67700   0.00027318143  3.5974016e-05 -2.3174536e-05 -7.1362776e-06 -6.2407149e-06  9.4285714    
     67800   0.00028077497  3.4159516e-05 -1.7785715e-05 -1.3882345e-05 -2.2717093e-07  9.4285714    
     67900   0.00029258173  2.8922458e-05 -9.2065533e-06 -8.1141289e-06  6.8130388e-06  9.4285714    
     68000   0.00029616118  2.5714921e-05 -7.0036918e-06  4.2687627e-07  1.4249726e-05  9.4285714    
     68100   0.0002917741   2.4393733e-05 -4.8172545e-06 -1.0738455e-05  4.2393987e-06  9.4285714    
     68200   0.00028131834  2.8593905e-05 -1.2343977e-06 -9.503057e-06   8.6225245e-06  9.4285714    
     68300   0.00026432799  3.281394e-05  -6.0523465e-06 -3.2304564e-06  7.4759065e-06  9.4285714    
     68400   0.00025708672  3.3985912e-05 -5.8726999e-06 -9.806178e-06   1.1193675e-06  9.4285714    
     68500   0.00025337208  3.6588702e-05 -3.8756471e-06 -8.7042187e-06  9.7334223e-06  9.4285714    
     68600   0.00025994625  3.3965976e-05 -5.7285823e-06 -8.609049e-06   8.7858506e-06  9.4285714    
     68700   0.00024937506  3.6199053e-05 -1.2929868e-05 -5.0723e-06     3.0227248e-06  9.4285714    
     68800   0.00024622448  3.1510953e-05 -1.3863141e-05 -8.2787747e-06  9.9609383e-06  9.4285714    
     68900   0.00023433065  4.1488754e-05 -9.7985118e-07 -8.6231032e-06  8.320895e-06   9.4285714    
     69000   0.00021489151  5.7088071e-05 -4.988891e-06  -1.1830131e-05  9.9019518e-07  9.4285714    
     69100   0.00022666729  4.5865917e-05 -9.9956236e-06 -7.4732891e-06  2.8062064e-06  9.4285714    
     69200   0.00024485667  2.4112962e-05 -1.1734961e-06 -2.889473e-06   2.5679679e-06  9.4285714    
     69300   0.00023185178  2.7906085e-05  2.6241956e-06  1.3018663e-06  1.3661865e-06  9.4285714    
     69400   0.0002261032   3.1986048e-05 -3.181151e-06  -6.7867052e-07  1.844274e-08   9.4285714    
     69500   0.00021809612  3.0133255e-05 -1.3679583e-05 -4.9582799e-06 -4.397565e-06   9.4285714    
     69600   0.00019721731  3.6740216e-05 -7.333739e-06  -1.8336698e-05 -7.0489857e-06  9.4285714    
     69700   0.00018156167  4.3832644e-05 -8.0058871e-06 -3.7556116e-05 -7.6247663e-06  9.4285714    
     69800   0.00017907988  3.8037982e-05 -1.0387241e-05 -2.496848e-05  -5.7668047e-06  9.4285714    
     69900   0.00018199097  3.2772192e-05  4.659136e-07  -1.3814232e-05 -9.0803854e-06  9.4285714    
     70000   0.00018537838  3.2723354e-05 -7.2868932e-06 -1.6836876e-05 -1.222341e-05   9.4285714    
     70100   0.00018557683  3.4697363e-05 -1.1971594e-05 -5.3944951e-06 -1.5154337e-05  9.4285714    
     70200   0.00018970782  3.115161e-05   6.8515714e-07 -2.2004847e-06 -6.7893511e-06  9.4285714    
     70300   0.00019721784  2.3222684e-05 -2.5071494e-06 -8.8551341e-06 -3.5447184e-07  9.4285714    
     70400   0.00019591496  2.0226394e-05 -4.9942392e-06 -5.2040703e-06 -2.4031826e-06  9.4285714    
     70500   0.00018944798  2.4572164e-05 -2.0768729e-06 -8.6996886e-06 -2.8741575e-06  9.4285714    
     70600   0.00018587869  2.4812778e-05 -4.7990429e-06 -1.310992e-05  -3.6857624e-06  9.4285714    
     70700   0.00018520659  2.2236643e-05 -5.8912943e-06 -8.6295932e-06 -1.4865031e-06  9.4285714    
     70800   0.00017896864  2.2907279e-05 -1.0025233e-05 -1.4215707e-05 -5.6025793e-06  9.4285714    
     70900   0.00017017895  2.6015098e-05 -1.2942341e-05 -1.2793765e-05 -8.4917833e-06  9.4285714    
     71000   0.00016594355  2.5904172e-05 -1.2725523e-05 -1.271929e-05  -8.7502117e-06  9.4285714    
     71100   0.00016522706  2.3146366e-05 -1.4845198e-05 -1.6384312e-05 -1.0438834e-05  9.4285714    
     71200   0.00016080206  2.4792527e-05 -1.4412628e-05 -9.1838953e-06 -7.3619274e-06  9.4285714    
     71300   0.00015327801  3.0096478e-05 -1.1235998e-05 -1.3663874e-05 -1.1589295e-05  9.4285714    
     71400   0.00015125229  2.9379093e-05 -7.7671572e-06 -1.7752167e-05 -1.2475569e-05  9.4285714    
     71500   0.00015115688  2.1092509e-05 -7.2186892e-06 -1.1431891e-05 -8.8571686e-06  9.4285714    
     71600   0.00014365964  2.3145143e-05 -6.96006e-06   -9.8539425e-06 -8.8597819e-06  9.4285714    
     71700   0.00013973668  2.9245798e-05 -7.1022435e-06 -1.1898659e-05 -9.2278935e-06  9.4285714    
     71800   0.00014147216  2.7039531e-05 -1.4201245e-05 -9.3949158e-06 -9.5444641e-06  9.4285714    
     71900   0.00014508359  1.9630505e-05 -1.055554e-05  -9.2851762e-06 -6.7731163e-06  9.4285714    
     72000   0.0001341842   2.3723415e-05 -3.5571375e-06 -1.2778347e-05 -1.0588894e-05  9.4285714    
     72100   0.00013359074  2.2568358e-05 -1.4038097e-05 -1.1846751e-05 -1.1801092e-05  9.4285714    
     72200   0.0001349854   2.0583099e-05 -1.3773944e-05 -9.3612654e-06 -1.4234876e-06  9.4285714    
     72300   0.00013635231  1.8161798e-05 -9.742741e-06  -1.0625374e-05 -4.9605589e-06  9.4285714    
     72400   0.00013598911  1.5390465e-05 -1.4100943e-05 -1.1069689e-05 -4.9803094e-06  9.4285714    
     72500   0.00012984571  1.9177306e-05 -1.3973704e-05 -7.7965963e-06 -1.3021039e-06  9.4285714    
     72600   0.00012474784  2.2165311e-05 -1.531831e-05  -7.6347033e-06 -3.7248045e-06  9.4285714    
     72700   0.00012530226  1.6235689e-05 -1.2885837e-05 -1.0406279e-05  3.7039729e-07  9.4285714    
     72800   0.00011472282  1.9104907e-05 -1.0410131e-05 -9.7474074e-06 -6.2113996e-06  9.4285714    
     72900   0.00010818674  2.7694403e-05 -1.2233957e-05 -7.815031e-06  -6.5772895e-06  9.4285714    
     73000   0.00011236135  2.0868619e-05 -5.8219175e-06 -1.0099266e-05  1.7667944e-06  9.4285714    
     73100   0.00010807546  1.9782478e-05 -4.5956424e-06 -1.1339621e-05 -1.9493595e-06  9.4285714    
     73200   8.750301e-05   3.131115e-05  -1.1430043e-05 -8.3298133e-06 -5.6842443e-06  9.4285714    
     73300   8.7614047e-05  2.6640717e-05 -1.0406508e-05 -1.3582967e-05 -3.6098954e-06  9.4285714    
     73400   8.9207666e-05  1.7811024e-05 -4.5040365e-07 -1.0392021e-05 -5.8224714e-06  9.4285714    
     73500   6.5896613e-05  2.9189065e-05 -7.9888327e-06 -9.0797877e-06 -1.2734234e-05  9.4285714    
     73600   6.9283842e-05  2.1735711e-05 -3.6196786e-06 -1.6306804e-05 -1.687582e-05   9.4285714    
     73700   6.2475858e-05  2.3972758e-05  2.4808633e-06 -1.3285229e-05 -8.6297781e-06  9.4285714    
     73800   5.1968465e-05  2.9859685e-05 -1.2731995e-05 -1.3373529e-05 -1.2317187e-05  9.4285714    
     73900   6.122996e-05   1.6667434e-05 -9.4871495e-06 -2.014576e-05  -1.2522606e-05  9.4285714    
     74000   5.643145e-05   1.8889825e-05 -9.9615976e-06 -1.8941057e-05 -8.7244955e-06  9.4285714    
     74100   5.1037501e-05  2.5010574e-05 -1.4385603e-05 -1.4718069e-05 -1.4248297e-05  9.4285714    
     74200   5.6454325e-05  1.8266198e-05 -6.3538705e-06 -1.3776334e-05 -1.2183727e-05  9.4285714    
     74300   5.7715134e-05  1.5823687e-05 -7.9567801e-06 -1.2453386e-05 -9.7727156e-06  9.4285714    
     74400   5.3987197e-05  1.72954e-05   -6.5427039e-06 -1.243564e-05  -1.1059068e-05  9.4285714    
     74500   5.3951046e-05  1.4955614e-05 -3.420147e-06  -1.2642435e-05 -9.2022582e-06  9.4285714    
     74600   4.9951393e-05  1.6182223e-05 -9.0634854e-06 -1.0824107e-05 -1.154807e-05   9.4285714    
     74700   4.8679411e-05  1.5609601e-05 -7.0060304e-06 -1.1436598e-05 -1.1247079e-05  9.4285714    
     74800   4.8329169e-05  1.3529832e-05 -3.555761e-06  -1.1098846e-05 -8.8776395e-06  9.4285714    
     74900   4.5448115e-05  1.5749811e-05 -7.2148165e-06 -1.1008814e-05 -9.6609131e-06  9.4285714    
     75000   4.6013979e-05  1.3690585e-05 -5.0838685e-06 -1.3191264e-05 -1.0377626e-05  9.4285714    
     75100   4.3876765e-05  1.2505462e-05 -6.1364203e-06 -1.1193047e-05 -1.032793e-05   9.4285714    
     75200   4.1606663e-05  1.4133573e-05 -1.0714699e-05 -1.1671998e-05 -1.0806737e-05  9.4285714    
     75300   4.2879442e-05  1.3248584e-05 -4.2044185e-06 -1.1676185e-05 -1.0835085e-05  9.4285714    
     75400   4.0777801e-05  1.2264372e-05 -3.2008657e-06 -7.9538413e-06 -8.5540177e-06  9.4285714    
     75500   3.7111324e-05  1.3142943e-05 -6.3946006e-06 -1.0394153e-05 -9.6726846e-06  9.4285714    
     75600   3.5285363e-05  1.3573633e-05 -4.3402649e-06 -1.2024452e-05 -1.2418223e-05  9.4285714    
     75700   3.2937475e-05  1.416449e-05  -7.4846298e-06 -1.107038e-05  -1.301568e-05   9.4285714    
     75800   3.2566363e-05  1.3339799e-05 -9.2136092e-06 -1.3687184e-05 -1.3142356e-05  9.4285714    
     75900   3.5325303e-05  1.0477681e-05 -5.2592569e-06 -1.0394518e-05 -1.2310437e-05  9.4285714    
     76000   3.450857e-05   1.115802e-05  -6.7883253e-06 -7.7490479e-06 -1.1677098e-05  9.4285714    
     76100   3.2346828e-05  1.2693315e-05 -8.3426463e-06 -9.3346097e-06 -1.0849359e-05  9.4285714    
     76200   3.3492737e-05  9.826231e-06  -6.6225746e-06 -8.0205376e-06 -9.7101162e-06  9.4285714    
     76300   3.27571e-05    8.5928208e-06 -6.6378688e-06 -7.2524375e-06 -7.9533555e-06  9.4285714    
     76400   3.0049756e-05  1.0983222e-05 -7.3729528e-06 -7.1835531e-06 -7.8169986e-06  9.4285714    
     76500   2.990889e-05   1.0954501e-05 -7.4458498e-06 -8.9793551e-06 -7.6675546e-06  9.4285714    
     76600   3.0004761e-05  9.2640775e-06 -6.7933002e-06 -9.9301546e-06 -6.7906764e-06  9.4285714    
     76700   2.8646611e-05  8.9458161e-06 -6.5547535e-06 -7.8272769e-06 -7.7934713e-06  9.4285714    
     76800   2.6081118e-05  1.0575712e-05 -7.6541026e-06 -8.8688768e-06 -6.8062564e-06  9.4285714    
     76900   2.6019395e-05  1.0146272e-05 -7.6207703e-06 -9.3514434e-06 -7.2215408e-06  9.4285714    
     77000   2.8864398e-05  7.063578e-06  -6.232852e-06  -7.5686719e-06 -9.2194413e-06  9.4285714    
     77100   2.7255369e-05  7.1779594e-06 -6.8628159e-06 -9.6392713e-06 -6.9945632e-06  9.4285714    
     77200   2.3313851e-05  9.709506e-06  -9.1819828e-06 -1.1006798e-05 -6.9972966e-06  9.4285714    
     77300   2.3798247e-05  8.4913047e-06 -8.0893331e-06 -9.5306265e-06 -7.2722892e-06  9.4285714    
     77400   2.5076487e-05  6.8537274e-06 -5.7918803e-06 -9.2822719e-06 -5.41442e-06    9.4285714    
     77500   2.4005499e-05  7.8182019e-06 -6.7543682e-06 -9.0143742e-06 -6.192119e-06   9.4285714    
     77600   2.325505e-05   8.2158397e-06 -7.1110643e-06 -7.8274083e-06 -5.9363559e-06  9.4285714    
     77700   2.3885929e-05  6.8270239e-06 -7.2610372e-06 -8.6883961e-06 -5.9644345e-06  9.4285714    
     77800   2.3890574e-05  6.057413e-06  -8.2746676e-06 -1.0058015e-05 -8.3591348e-06  9.4285714    
     77900   2.2928768e-05  6.7403032e-06 -7.8381894e-06 -8.3314392e-06 -7.822034e-06   9.4285714    
     78000   2.1233685e-05  7.8298779e-06 -8.5011873e-06 -8.2472491e-06 -7.2332386e-06  9.4285714    
     78100   2.1133585e-05  6.997828e-06  -9.7926028e-06 -9.1016142e-06 -8.831979e-06   9.4285714    
     78200   2.1236183e-05  5.7382806e-06 -9.8016513e-06 -7.6431102e-06 -8.970721e-06   9.4285714    
     78300   2.0401632e-05  5.9852583e-06 -9.5839104e-06 -7.0752096e-06 -9.2680237e-06  9.4285714    
     78400   1.9255214e-05  6.7154997e-06 -9.1674788e-06 -7.2259077e-06 -9.8764456e-06  9.4285714    
     78500   1.8607966e-05  6.7003587e-06 -9.4072913e-06 -7.1788854e-06 -1.0020084e-05  9.4285714    
     78600   1.7873123e-05  6.50986e-06   -9.1047405e-06 -6.9601417e-06 -1.0561953e-05  9.4285714    
     78700   1.7088724e-05  6.6337551e-06 -8.6290033e-06 -6.8392716e-06 -1.0360083e-05  9.4285714    
     78800   1.7330771e-05  6.5384774e-06 -9.7181291e-06 -7.6745165e-06 -1.0040818e-05  9.4285714    
     78900   1.69385e-05    6.6836002e-06 -9.5295455e-06 -9.4813195e-06 -1.0704082e-05  9.4285714    
     79000   1.7167215e-05  6.1188521e-06 -8.8754169e-06 -1.0701926e-05 -1.0723209e-05  9.4285714    
     79100   1.8047113e-05  5.495056e-06  -8.2779285e-06 -8.904659e-06  -1.0396608e-05  9.4285714    
     79200   1.8042692e-05  5.5788174e-06 -7.9225462e-06 -8.6087552e-06 -1.0638817e-05  9.4285714    
     79300   1.761828e-05   5.4682838e-06 -7.2764071e-06 -8.4725687e-06 -1.0146043e-05  9.4285714    
     79400   1.7432955e-05  5.1810257e-06 -7.3077018e-06 -7.7089399e-06 -1.0003406e-05  9.4285714    
     79500   1.7107749e-05  5.062377e-06  -8.5127129e-06 -9.881698e-06  -1.1021631e-05  9.4285714    
     79600   1.679836e-05   5.1107834e-06 -8.4396484e-06 -9.9460302e-06 -1.2094185e-05  9.4285714    
     79700   1.6059035e-05  5.361123e-06  -9.444805e-06  -1.0831039e-05 -1.1701036e-05  9.4285714    
     79800   1.4827301e-05  5.7300672e-06 -1.0448096e-05 -1.2804859e-05 -1.1516868e-05  9.4285714    
     79900   1.4310908e-05  5.7638973e-06 -9.6496804e-06 -1.0099024e-05 -1.1080004e-05  9.4285714    
     80000   1.4295728e-05  5.6383397e-06 -1.0453738e-05 -8.5933104e-06 -9.9771896e-06  9.4285714    
     80100   1.4283277e-05  5.4246793e-06 -1.0717371e-05 -9.1618208e-06 -9.3356382e-06  9.4285714    
     80200   1.3821135e-05  5.4065933e-06 -9.9908319e-06 -9.7393323e-06 -9.2929977e-06  9.4285714    
     80300   1.3127671e-05  5.4267195e-06 -1.0392937e-05 -1.1510499e-05 -9.6610411e-06  9.4285714    
     80400   1.2381805e-05  5.4029019e-06 -9.3802734e-06 -1.0856781e-05 -1.0314371e-05  9.4285714    
     80500   1.1492657e-05  5.6958543e-06 -8.8013911e-06 -9.632893e-06  -1.0852282e-05  9.4285714    
     80600   1.147928e-05   5.6348112e-06 -9.7648963e-06 -9.9746797e-06 -1.1350985e-05  9.4285714    
     80700   1.1863905e-05  5.3420336e-06 -9.0230379e-06 -9.3173099e-06 -1.1338235e-05  9.4285714    
     80800   1.2088691e-05  5.1283283e-06 -8.3885726e-06 -9.9221169e-06 -1.08438e-05    9.4285714    
     80900   1.21371e-05    4.8222156e-06 -8.539977e-06  -1.1093415e-05 -1.07704e-05    9.4285714    
     81000   1.1989077e-05  4.7128612e-06 -8.4917802e-06 -1.1275664e-05 -1.0575293e-05  9.4285714    
     81100   1.1523308e-05  4.7854986e-06 -8.8819937e-06 -1.1467459e-05 -1.0861949e-05  9.4285714    
     81200   1.1291662e-05  4.655612e-06  -8.3556161e-06 -1.0786548e-05 -1.1430414e-05  9.4285714    
     81300   1.0985225e-05  4.7242738e-06 -8.0727716e-06 -9.9739462e-06 -1.0635276e-05  9.4285714    
     81400   1.0175088e-05  5.0945246e-06 -8.6530168e-06 -1.079402e-05  -1.1347156e-05  9.4285714    
     81500   9.8242945e-06  4.9492393e-06 -7.7971688e-06 -1.1252556e-05 -1.2901748e-05  9.4285714    
     81600   9.7545287e-06  4.5826621e-06 -7.3289959e-06 -1.0996475e-05 -1.2630595e-05  9.4285714    
     81700   9.495879e-06   4.5311322e-06 -7.8152137e-06 -1.1497831e-05 -1.3121291e-05  9.4285714    
     81800   9.2251344e-06  4.6615756e-06 -8.0226938e-06 -1.1380285e-05 -1.3384524e-05  9.4285714    
     81900   9.4421419e-06  4.4709548e-06 -8.5393184e-06 -1.0488657e-05 -1.2772024e-05  9.4285714    
     82000   9.5267262e-06  4.3857919e-06 -8.3156137e-06 -9.8804532e-06 -1.2709405e-05  9.4285714    
     82100   9.0801547e-06  4.6174867e-06 -7.836983e-06  -9.361463e-06  -1.2367144e-05  9.4285714    
     82200   8.8030745e-06  4.7027494e-06 -7.3825473e-06 -9.230472e-06  -1.2323684e-05  9.4285714    
     82300   8.7758135e-06  4.5661737e-06 -7.1911756e-06 -9.0533308e-06 -1.2487698e-05  9.4285714    
     82400   8.7911861e-06  4.3714836e-06 -7.9485456e-06 -9.2321537e-06 -1.1964838e-05  9.4285714    
     82500   8.9314999e-06  4.3280289e-06 -7.8759761e-06 -9.5722389e-06 -1.1936129e-05  9.4285714    
     82600   9.1739168e-06  4.2280411e-06 -7.4128057e-06 -9.1773972e-06 -1.1964596e-05  9.4285714    
     82700   9.4969807e-06  3.9104643e-06 -7.5917832e-06 -9.1612553e-06 -1.1512822e-05  9.4285714    
     82800   9.6703928e-06  3.7454766e-06 -7.6485972e-06 -9.6974999e-06 -1.138108e-05   9.4285714    
     82900   9.5556087e-06  3.7609144e-06 -7.856339e-06  -9.6711137e-06 -1.0688493e-05  9.4285714    
     83000   9.6673096e-06  3.5599615e-06 -7.9531518e-06 -9.4954507e-06 -9.689477e-06   9.4285714    
     83100   9.7916479e-06  3.4606308e-06 -8.0968199e-06 -9.3469406e-06 -9.1199959e-06  9.4285714    
     83200   9.759959e-06   3.5957846e-06 -8.5064731e-06 -9.3006581e-06 -8.5732347e-06  9.4285714    
     83300   9.7737562e-06  3.5936219e-06 -8.1440007e-06 -9.1893113e-06 -8.6093908e-06  9.4285714    
     83400   9.8073662e-06  3.4698038e-06 -7.8553309e-06 -9.0635394e-06 -8.7654725e-06  9.4285714    
     83500   9.7697978e-06  3.3861236e-06 -7.6181712e-06 -9.7834132e-06 -8.6433411e-06  9.4285714    
     83600   9.5409967e-06  3.4911577e-06 -7.7054575e-06 -1.0642476e-05 -8.8485654e-06  9.4285714    
     83700   9.6275818e-06  3.4840648e-06 -8.5163636e-06 -1.0671179e-05 -8.8586635e-06  9.4285714    
     83800   9.6942843e-06  3.3305475e-06 -9.2127857e-06 -1.1020943e-05 -8.7857369e-06  9.4285714    
     83900   9.2524056e-06  3.4744606e-06 -9.7002856e-06 -1.1049126e-05 -9.1901953e-06  9.4285714    
     84000   8.5566341e-06  3.7873379e-06 -9.4096185e-06 -9.9893776e-06 -9.6832323e-06  9.4285714    
     84100   8.6691501e-06  3.7034026e-06 -8.8802679e-06 -9.8763626e-06 -9.653033e-06   9.4285714    
     84200   8.99628e-06    3.4664891e-06 -8.6205274e-06 -1.0101395e-05 -9.5743804e-06  9.4285714    
     84300   8.7748378e-06  3.6140978e-06 -8.6890971e-06 -1.0165991e-05 -9.5881494e-06  9.4285714    
     84400   8.7968125e-06  3.6260929e-06 -9.3025028e-06 -1.1139599e-05 -9.7973208e-06  9.4285714    
     84500   8.8551683e-06  3.5454261e-06 -9.9794318e-06 -1.1241199e-05 -1.013499e-05   9.4285714    
     84600   8.7268634e-06  3.53545e-06   -1.0576348e-05 -1.060328e-05  -1.0520105e-05  9.4285714    
     84700   8.5454981e-06  3.52026e-06   -1.0655994e-05 -1.0169008e-05 -1.103006e-05   9.4285714    
     84800   8.575601e-06   3.4708444e-06 -1.002465e-05  -9.3743935e-06 -1.1239419e-05  9.4285714    
     84900   8.7164949e-06  3.497104e-06  -9.5423587e-06 -8.765525e-06  -1.1088056e-05  9.4285714    
     85000   8.7131643e-06  3.6468392e-06 -9.1613987e-06 -8.6067447e-06 -1.0712991e-05  9.4285714    
     85100   8.6681848e-06  3.745196e-06  -8.4705819e-06 -8.741124e-06  -1.0413296e-05  9.4285714    
     85200   8.7987172e-06  3.6372492e-06 -8.2657825e-06 -9.2901754e-06 -1.0315776e-05  9.4285714    
     85300   8.7930234e-06  3.5237455e-06 -8.3298408e-06 -9.2795904e-06 -1.0327225e-05  9.4285714    
     85400   8.2235717e-06  3.6019449e-06 -8.5008385e-06 -1.0093605e-05 -1.0877342e-05  9.4285714    
     85500   7.7441326e-06  3.7366795e-06 -8.864802e-06  -1.1426439e-05 -1.1115858e-05  9.4285714    
     85600   7.5524791e-06  3.870073e-06  -8.6513684e-06 -1.1415325e-05 -1.092803e-05   9.4285714    
     85700   7.4290684e-06  4.084215e-06  -8.4837235e-06 -1.1151034e-05 -1.1076049e-05  9.4285714    
     85800   7.4937282e-06  4.0490521e-06 -7.9997855e-06 -1.0886656e-05 -1.0943171e-05  9.4285714    
     85900   7.7674624e-06  3.7437592e-06 -7.3409261e-06 -1.0576402e-05 -1.0877974e-05  9.4285714    
     86000   7.8729412e-06  3.6826046e-06 -7.5133745e-06 -1.0685258e-05 -1.1119103e-05  9.4285714    
     86100   7.7429759e-06  3.8589863e-06 -7.6621295e-06 -1.1361651e-05 -1.1300523e-05  9.4285714    
     86200   7.7760253e-06  3.8580954e-06 -7.5202614e-06 -1.1452159e-05 -1.1228055e-05  9.4285714    
     86300   7.7796235e-06  3.7539054e-06 -7.307317e-06  -1.0577467e-05 -1.0871601e-05  9.4285714    
     86400   7.6436729e-06  3.7222587e-06 -7.1333331e-06 -1.0452351e-05 -1.1186276e-05  9.4285714    
     86500   7.6479604e-06  3.6438859e-06 -7.4372159e-06 -1.0274692e-05 -1.1809967e-05  9.4285714    
     86600   7.6034556e-06  3.683168e-06  -8.3170041e-06 -1.0077256e-05 -1.2256431e-05  9.4285714    
     86700   7.315849e-06   3.8253272e-06 -9.4090495e-06 -1.0513807e-05 -1.2540305e-05  9.4285714    
     86800   7.2162609e-06  3.7572167e-06 -9.7505225e-06 -1.0532527e-05 -1.2461868e-05  9.4285714    
     86900   7.3501442e-06  3.5942694e-06 -9.5409865e-06 -1.0527081e-05 -1.2233664e-05  9.4285714    
     87000   7.3111694e-06  3.586412e-06  -9.2525444e-06 -1.1151658e-05 -1.1722211e-05  9.4285714    
     87100   7.1733424e-06  3.659429e-06  -8.8551545e-06 -1.1653459e-05 -1.1018496e-05  9.4285714    
     87200   7.12496e-06    3.702704e-06  -8.623933e-06  -1.1341161e-05 -1.0486809e-05  9.4285714    
     87300   7.0856339e-06  3.706389e-06  -8.2343937e-06 -1.102556e-05  -9.7854732e-06  9.4285714    
     87400   6.5019001e-06  3.7953364e-06 -7.5564474e-06 -1.0370912e-05 -9.3944098e-06  9.4285714    
     87500   6.034851e-06   4.0149651e-06 -7.4970528e-06 -9.8585044e-06 -9.4455997e-06  9.4285714    
     87600   6.3432413e-06  4.0644588e-06 -8.2699989e-06 -1.0385364e-05 -9.2578979e-06  9.4285714    
     87700   6.592485e-06   4.0288551e-06 -8.2661119e-06 -1.0837257e-05 -9.1935988e-06  9.4285714    
     87800   6.5822588e-06  3.9413902e-06 -8.078783e-06  -1.0608531e-05 -9.2221548e-06  9.4285714    
     87900   6.331954e-06   3.9805279e-06 -7.6243773e-06 -9.8936002e-06 -9.1369868e-06  9.4285714    
     88000   6.3946561e-06  4.0620976e-06 -7.0254331e-06 -1.0018891e-05 -9.1639116e-06  9.4285714    
     88100   6.6700331e-06  3.9609426e-06 -7.8543658e-06 -1.0367125e-05 -9.4597793e-06  9.4285714    
     88200   6.8740153e-06  3.7900624e-06 -8.2898656e-06 -9.750607e-06  -9.7097148e-06  9.4285714    
     88300   6.7619545e-06  3.8869634e-06 -8.3665876e-06 -9.6261393e-06 -1.0180076e-05  9.4285714    
     88400   6.1896693e-06  4.1549718e-06 -9.2320711e-06 -1.075651e-05  -1.0334611e-05  9.4285714    
     88500   5.4316217e-06  4.4123653e-06 -9.6196338e-06 -1.1264884e-05 -1.0300727e-05  9.4285714    
     88600   4.988728e-06   4.7019079e-06 -9.8759046e-06 -1.1075406e-05 -1.0691613e-05  9.4285714    
     88700   5.1425135e-06  4.7365747e-06 -1.0284979e-05 -1.0512766e-05 -1.0905207e-05  9.4285714    
     88800   5.4398178e-06  4.4405463e-06 -9.9488493e-06 -9.8885202e-06 -1.1296688e-05  9.4285714    
     88900   5.3351276e-06  4.3211517e-06 -9.7577703e-06 -9.9676127e-06 -1.188021e-05   9.4285714    
     89000   4.8747832e-06  4.5903572e-06 -9.8846151e-06 -1.0311549e-05 -1.2164478e-05  9.4285714    
     89100   4.7381565e-06  4.7320846e-06 -9.9241784e-06 -1.0295748e-05 -1.2446647e-05  9.4285714    
     89200   4.9558231e-06  4.6427813e-06 -9.8379989e-06 -1.0121635e-05 -1.2496188e-05  9.4285714    
     89300   4.9549017e-06  4.6437148e-06 -9.7673181e-06 -1.0271662e-05 -1.2430298e-05  9.4285714    
     89400   4.6406882e-06  4.7986669e-06 -9.713625e-06  -1.1223518e-05 -1.2603924e-05  9.4285714    
     89500   4.2763014e-06  4.9226991e-06 -9.5403827e-06 -1.1634735e-05 -1.2973531e-05  9.4285714    
     89600   4.0578185e-06  4.8736262e-06 -9.277611e-06  -1.1163805e-05 -1.332954e-05   9.4285714    
     89700   3.8913706e-06  4.7747446e-06 -8.9393987e-06 -1.0687294e-05 -1.3442001e-05  9.4285714    
     89800   3.6154892e-06  4.8444901e-06 -8.5650952e-06 -1.0192047e-05 -1.3397883e-05  9.4285714    
     89900   3.4766184e-06  4.8936175e-06 -7.8512691e-06 -1.0006372e-05 -1.3147259e-05  9.4285714    
     90000   3.4604004e-06  4.7868598e-06 -7.4795262e-06 -1.0022994e-05 -1.2807821e-05  9.4285714    
     90100   3.3248873e-06  4.7052992e-06 -7.5901038e-06 -1.0208911e-05 -1.2856626e-05  9.4285714    
     90200   3.2822748e-06  4.6084911e-06 -8.6183486e-06 -1.044774e-05  -1.2910783e-05  9.4285714    
     90300   3.3794604e-06  4.4311723e-06 -9.3575549e-06 -1.0120003e-05 -1.260748e-05   9.4285714    
     90400   3.2688674e-06  4.4092648e-06 -8.3422385e-06 -9.8895095e-06 -1.2379843e-05  9.4285714    
     90500   3.1917385e-06  4.3862889e-06 -8.2206019e-06 -1.0041229e-05 -1.2068672e-05  9.4285714    
     90600   3.2219113e-06  4.2605562e-06 -8.1734241e-06 -1.0396109e-05 -1.1744308e-05  9.4285714    
     90700   3.1908073e-06  4.1731295e-06 -7.6282072e-06 -1.1041234e-05 -1.1533894e-05  9.4285714    
     90800   3.1326952e-06  4.0293109e-06 -7.7962717e-06 -1.119121e-05  -1.1437712e-05  9.4285714    
     90900   3.145077e-06   3.8924536e-06 -7.3820361e-06 -1.0511319e-05 -1.1350883e-05  9.4285714    
     91000   3.2046863e-06  3.7977909e-06 -7.0272417e-06 -1.0226263e-05 -1.1175313e-05  9.4285714    
     91100   3.2318251e-06  3.6978793e-06 -7.4419793e-06 -1.025269e-05  -1.0901408e-05  9.4285714    
     91200   3.1619575e-06  3.6763792e-06 -7.405694e-06  -9.9302531e-06 -1.062206e-05   9.4285714    
     91300   3.0802752e-06  3.7008836e-06 -7.506508e-06  -1.0159786e-05 -1.0489459e-05  9.4285714    
     91400   2.9119237e-06  3.7304846e-06 -7.7784802e-06 -1.0399631e-05 -1.0396938e-05  9.4285714    
     91500   2.7239935e-06  3.7906729e-06 -7.1942497e-06 -9.963846e-06  -1.0166029e-05  9.4285714    
     91600   2.6322809e-06  3.8081604e-06 -6.7730108e-06 -9.9658097e-06 -9.9817357e-06  9.4285714    
     91700   2.5542253e-06  3.7077588e-06 -6.799629e-06  -1.0313906e-05 -9.9018447e-06  9.4285714    
     91800   2.4652241e-06  3.5273473e-06 -6.5649392e-06 -1.0309996e-05 -9.7766554e-06  9.4285714    
     91900   2.3580531e-06  3.4379814e-06 -6.687353e-06  -1.0087198e-05 -9.4691704e-06  9.4285714    
     92000   2.239558e-06   3.4651453e-06 -6.8058503e-06 -9.8718579e-06 -9.2031562e-06  9.4285714    
     92100   2.1866541e-06  3.4752662e-06 -6.8003814e-06 -9.6636736e-06 -9.0237589e-06  9.4285714    
     92200   2.181379e-06   3.409472e-06  -7.0678709e-06 -9.6198899e-06 -8.9430067e-06  9.4285714    
     92300   2.1500952e-06  3.3276792e-06 -6.8158968e-06 -9.5953334e-06 -9.0491908e-06  9.4285714    
     92400   2.0356386e-06  3.3300104e-06 -6.6989215e-06 -9.6283027e-06 -9.291019e-06   9.4285714    
     92500   1.9136101e-06  3.3659269e-06 -6.8828805e-06 -9.6418646e-06 -9.5412498e-06  9.4285714    
     92600   1.8961206e-06  3.2971297e-06 -6.662648e-06  -9.5257045e-06 -9.6354679e-06  9.4285714    
     92700   1.8894786e-06  3.2004987e-06 -6.979052e-06  -9.6360682e-06 -9.7146638e-06  9.4285714    
     92800   1.8146076e-06  3.1804222e-06 -7.4292204e-06 -9.5862269e-06 -9.7685053e-06  9.4285714    
     92900   1.7438425e-06  3.1685024e-06 -7.412923e-06  -9.5144974e-06 -9.7045556e-06  9.4285714    
     93000   1.7464879e-06  3.1533619e-06 -7.6317372e-06 -9.7673757e-06 -9.639538e-06   9.4285714    
     93100   1.7850915e-06  3.2031712e-06 -7.6760061e-06 -9.7333418e-06 -9.5538812e-06  9.4285714    
     93200   1.8362772e-06  3.2703243e-06 -7.5815339e-06 -9.4591834e-06 -9.4271229e-06  9.4285714    
     93300   1.9053962e-06  3.274615e-06  -7.9596388e-06 -9.321423e-06  -9.4588314e-06  9.4285714    
     93400   1.9672132e-06  3.259641e-06  -8.0117881e-06 -9.1600928e-06 -9.5803282e-06  9.4285714    
     93500   2.0060551e-06  3.2952618e-06 -7.9434556e-06 -9.2066733e-06 -9.6794405e-06  9.4285714    
     93600   2.0444948e-06  3.3303442e-06 -8.0252212e-06 -9.5421498e-06 -9.7823031e-06  9.4285714    
     93700   2.0652217e-06  3.3028506e-06 -7.8714113e-06 -1.0093688e-05 -9.9967001e-06  9.4285714    
     93800   2.0036877e-06  3.2629731e-06 -7.7647333e-06 -1.0538169e-05 -1.02444e-05    9.4285714    
     93900   1.8667489e-06  3.290848e-06  -7.6044191e-06 -1.0720868e-05 -1.0393795e-05  9.4285714    
     94000   1.8467013e-06  3.345126e-06  -7.3296328e-06 -1.0800532e-05 -1.0438357e-05  9.4285714    
     94100   1.9279941e-06  3.397222e-06  -7.4058614e-06 -1.0726658e-05 -1.0345913e-05  9.4285714    
     94200   1.9394961e-06  3.4838794e-06 -7.4394254e-06 -1.0622106e-05 -1.0275147e-05  9.4285714    
     94300   1.8715647e-06  3.5812394e-06 -7.691573e-06  -1.056157e-05  -1.0303532e-05  9.4285714    
     94400   1.7736957e-06  3.6069969e-06 -7.9562643e-06 -1.0379727e-05 -1.0424532e-05  9.4285714    
     94500   1.6013689e-06  3.5723327e-06 -7.6617071e-06 -1.0671994e-05 -1.0568599e-05  9.4285714    
     94600   1.407062e-06   3.5901074e-06 -7.7060789e-06 -1.1344991e-05 -1.073181e-05   9.4285714    
     94700   1.2994096e-06  3.6520882e-06 -7.7850141e-06 -1.1475955e-05 -1.1026101e-05  9.4285714    
     94800   1.2058467e-06  3.7337508e-06 -7.5206062e-06 -1.1651523e-05 -1.1387309e-05  9.4285714    
     94900   1.1585987e-06  3.7878186e-06 -7.5418176e-06 -1.158085e-05  -1.1670848e-05  9.4285714    
     95000   1.2236494e-06  3.7719052e-06 -7.4929606e-06 -1.123945e-05  -1.1882968e-05  9.4285714    
     95100   1.2597568e-06  3.7521559e-06 -7.643169e-06  -1.1259856e-05 -1.1975457e-05  9.4285714    
     95200   1.2260534e-06  3.7641648e-06 -8.2423231e-06 -1.1107602e-05 -1.1930052e-05  9.4285714    
     95300   1.2203838e-06  3.7654218e-06 -8.5767893e-06 -1.0992762e-05 -1.1901502e-05  9.4285714    
     95400   1.2337552e-06  3.775229e-06  -8.7904705e-06 -1.1019578e-05 -1.182099e-05   9.4285714    
     95500   1.2344174e-06  3.8154191e-06 -8.7604397e-06 -1.0909922e-05 -1.1665808e-05  9.4285714    
     95600   1.2326308e-06  3.8335348e-06 -8.4707417e-06 -1.1039699e-05 -1.1673858e-05  9.4285714    
     95700   1.2982816e-06  3.7824554e-06 -8.4161448e-06 -1.1173e-05    -1.1715996e-05  9.4285714    
     95800   1.3985459e-06  3.7166034e-06 -8.4462953e-06 -1.0955928e-05 -1.1642958e-05  9.4285714    
     95900   1.4662026e-06  3.6971144e-06 -8.505888e-06  -1.0870729e-05 -1.1524611e-05  9.4285714    
     96000   1.5277399e-06  3.6925459e-06 -8.619202e-06  -1.0873686e-05 -1.1348928e-05  9.4285714    
     96100   1.5578307e-06  3.680021e-06  -8.735267e-06  -1.0766319e-05 -1.1256388e-05  9.4285714    
     96200   1.5176088e-06  3.6715876e-06 -8.9879874e-06 -1.0863343e-05 -1.1275648e-05  9.4285714    
     96300   1.4268222e-06  3.6491368e-06 -9.1760142e-06 -1.0829299e-05 -1.1404134e-05  9.4285714    
     96400   1.3794858e-06  3.5848636e-06 -9.1274634e-06 -1.0663862e-05 -1.1531819e-05  9.4285714    
     96500   1.3985366e-06  3.541154e-06  -9.081989e-06  -1.0609606e-05 -1.1462445e-05  9.4285714    
     96600   1.4377217e-06  3.5316054e-06 -9.0388659e-06 -1.0819366e-05 -1.1128573e-05  9.4285714    
     96700   1.4910514e-06  3.4751551e-06 -8.9246134e-06 -1.1177567e-05 -1.0885535e-05  9.4285714    
     96800   1.4569812e-06  3.4152154e-06 -8.696747e-06  -1.1352928e-05 -1.0639336e-05  9.4285714    
     96900   1.309199e-06   3.4144083e-06 -8.3867892e-06 -1.1612875e-05 -1.0409508e-05  9.4285714    
     97000   1.1580272e-06  3.4142682e-06 -8.0861295e-06 -1.1787852e-05 -1.0157263e-05  9.4285714    
     97100   1.010729e-06   3.4188852e-06 -7.8383728e-06 -1.1408227e-05 -9.7529401e-06  9.4285714    
     97200   8.8337109e-07  3.4704766e-06 -7.6515216e-06 -1.0924116e-05 -9.5565356e-06  9.4285714    
     97300   8.4866814e-07  3.5031053e-06 -7.4956088e-06 -1.0781238e-05 -9.5461776e-06  9.4285714    
     97400   8.9523899e-07  3.4700545e-06 -7.4276545e-06 -1.0720167e-05 -9.5241467e-06  9.4285714    
     97500   9.3565891e-07  3.4212805e-06 -7.5293365e-06 -1.0818307e-05 -9.6257944e-06  9.4285714    
     97600   9.6799513e-07  3.3747513e-06 -7.7999257e-06 -1.0915505e-05 -9.7361629e-06  9.4285714    
     97700   1.0001183e-06  3.3536123e-06 -8.0156198e-06 -1.0704663e-05 -9.7377976e-06  9.4285714    
     97800   1.0407962e-06  3.3433426e-06 -8.087465e-06  -1.0553451e-05 -9.7364483e-06  9.4285714    
     97900   1.0638968e-06  3.3204199e-06 -8.158286e-06  -1.0385218e-05 -9.7309199e-06  9.4285714    
     98000   1.0527638e-06  3.2844992e-06 -8.2955097e-06 -1.019374e-05  -9.7881174e-06  9.4285714    
     98100   1.0069074e-06  3.2611668e-06 -8.3713129e-06 -1.0243259e-05 -9.9825109e-06  9.4285714    
     98200   9.6288588e-07  3.2650365e-06 -8.4303222e-06 -1.0264138e-05 -1.0071553e-05  9.4285714    
     98300   9.473931e-07   3.28689e-06   -8.5077029e-06 -1.0390929e-05 -1.0037292e-05  9.4285714    
     98400   9.568858e-07   3.2964584e-06 -8.5557161e-06 -1.0723847e-05 -9.9200803e-06  9.4285714    
     98500   9.583127e-07   3.2873817e-06 -8.5756042e-06 -1.0961723e-05 -9.7950424e-06  9.4285714    
     98600   9.5531429e-07  3.2841635e-06 -8.6078082e-06 -1.1116248e-05 -9.7832067e-06  9.4285714    
     98700   9.70373e-07    3.2862353e-06 -8.537096e-06  -1.11491e-05   -9.7960248e-06  9.4285714    
     98800   9.723382e-07   3.3173787e-06 -8.395963e-06  -1.1121492e-05 -9.7839365e-06  9.4285714    
     98900   9.6187899e-07  3.3806315e-06 -8.2468485e-06 -1.0972556e-05 -9.8050631e-06  9.4285714    
     99000   9.5550255e-07  3.4580111e-06 -8.1752797e-06 -1.073791e-05  -9.8162608e-06  9.4285714    
     99100   9.3280367e-07  3.5226171e-06 -8.1320535e-06 -1.0642553e-05 -9.8739442e-06  9.4285714    
     99200   9.0138036e-07  3.5523162e-06 -8.1471897e-06 -1.0556294e-05 -9.9275653e-06  9.4285714    
     99300   8.822688e-07   3.5639907e-06 -8.1911388e-06 -1.050906e-05  -9.9543012e-06  9.4285714    
     99400   8.6706131e-07  3.5887051e-06 -8.1658915e-06 -1.0777014e-05 -1.0069245e-05  9.4285714    
     99500   8.5892919e-07  3.6007957e-06 -8.1553621e-06 -1.0960715e-05 -1.0223994e-05  9.4285714    
     99600   8.3117627e-07  3.6052681e-06 -8.2218086e-06 -1.0868375e-05 -1.0316706e-05  9.4285714    
     99700   7.7531319e-07  3.6081607e-06 -8.3378337e-06 -1.0800885e-05 -1.0384801e-05  9.4285714    
     99800   6.984284e-07   3.6272027e-06 -8.3869874e-06 -1.0774651e-05 -1.0485022e-05  9.4285714    
     99900   6.1945883e-07  3.6726844e-06 -8.3354977e-06 -1.0779907e-05 -1.0646494e-05  9.4285714    
    100000   5.7332419e-07  3.7128485e-06 -8.1081886e-06 -1.0754897e-05 -1.0806168e-05  9.4285714    
Loop time of 229.002 on 1 procs for 100000 steps with 2520 atoms

Performance: 1886445.546 tau/day, 436.677 timesteps/s, 1.100 Matom-step/s
99.6% CPU use with 1 MPI tasks x 1 OpenMP threads

MPI task timing breakdown:
Section |  min time  |  avg time  |  max time  |%varavg| %total
---------------------------------------------------------------
Pair    | 1.4111     | 1.4111     | 1.4111     |   0.0 |  0.62
Bond    | 211.22     | 211.22     | 211.22     |   0.0 | 92.24
Neigh   | 2.7772     | 2.7772     | 2.7772     |   0.0 |  1.21
Comm    | 0.095191   | 0.095191   | 0.095191   |   0.0 |  0.04
Output  | 0.069264   | 0.069264   | 0.069264   |   0.0 |  0.03
Modify  | 13.082     | 13.082     | 13.082     |   0.0 |  5.71
Other   |            | 0.346      |            |       |  0.15

Nlocal:           2520 ave        2520 max        2520 min
Histogram: 1 0 0 0 0 0 0 0 0 0
Nghost:              0 ave           0 max           0 min
Histogram: 1 0 0 0 0 0 0 0 0 0
Neighs:           9994 ave        9994 max        9994 min
Histogram: 1 0 0 0 0 0 0 0 0 0

Total # of neighbors = 9994
Ave neighs/atom = 3.965873
Ave special neighs/atom = 36.31746
Neighbor list builds = 5316
Dangerous builds = 0
Total wall time: 0:03:49
