LAMMPS (4 Jul 2026 - Development - patch_4Jul2026-197-g34022a802c)
OMP_NUM_THREADS environment is not set. Defaulting to 1 thread.
  using 1 OpenMP thread(s) per MPI task
# pouring spheres into box made of triangles

units           lj
atom_style      tri
atom_modify     map array
boundary        f f f
dimension       3
comm_modify     vel yes cutoff 12.5

read_data       data.tri
Reading data file ...
  orthogonal box = (-7 -7 0) to (7 7 9)
  1 by 1 by 1 MPI processor grid
  reading atoms ...
  4 atoms
  4 triangles
  read_data CPU = 0.000 seconds

pair_style      hybrid granular surf/granular
pair_coeff      1 1 granular hooke 4000.0 100.0                          tangential linear_history 1000.0 1.0 0.5                          damping mass_velocity
pair_coeff      1 2 surf/granular hooke 4000.0 100.0                          tangential linear_history 1000.0 1.0 0.5                          damping mass_velocity
pair_coeff      2 2 none

group           sphere type 1
0 atoms in group sphere
group           tri type 2
4 atoms in group tri

fix             fsl all surface/local
Connecting line/tri particles ...
Fix surface/local triangle creation:
  4 tris
  8 tri edges
  5 tri corner points
  4 edge connections
  2 corner point connections
  4 free edges
  0 free corner points
  8.48528137423857 min edge length
  12 max edge length
  36 min tri area
  36 max tri area

neighbor        0.3 bin
neigh_modify    delay 0 every 1 check yes

fix             2 sphere nve/sphere
fix             3 sphere gravity 1.0 vector 0 0 -1

region          slab block -2 2 -2 2 7 9 units box
fix             ins sphere pour 100 1 4767548 vol 0.4 10                 diam one 1.0 region slab ignore

region          zcylinder cylinder z 0 0 7.0 INF INF units box
fix             wall sphere wall/gran/region granular hooke 4000.0 100.0                          tangential linear_history 1000.0 1.0 0.5                          damping mass_velocity                          region zcylinder

timestep        0.005

compute         1 sphere temp
compute_modify  1 dynamic/dof yes

compute         2 sphere temp/sphere
compute_modify  2 dynamic/dof yes

thermo          100
thermo_style    custom step atoms temp c_1 c_2 press
thermo_modify   lost ignore
compute_modify  thermo_temp dynamic/dof yes

#dump           2 all image 100 tmp.image.*.ppm type type #               zoom 1.4 adiam 1.0 tri type 2 0.2
#dump_modify        2 pad 5

run             5000
Generated 0 of 1 mixed pair_coeff terms from geometric mixing rule
Particle insertion: 24 every 400 steps, 100 by step 1601
Neighbor list info ...
  update: every = 1 steps, delay = 0 steps, check = yes
  max neighbors/atom: 2000, page size: 100000
  master list distance cutoff = 7.1245553
  ghost atom cutoff = 12.5
  binsize = 3.5622777, bins = 4 4 3
  3 neighbor lists, perpetual/occasional/extra = 3 0 0
  (1) pair granular, perpetual, skip from (3)
      attributes: half, newton on, size, history, off2on
      pair build: skip/size/off2on
      stencil: none
      bin: none
  (2) pair surf/granular, perpetual, skip from (3)
      attributes: half, newton on, size, history, onesided, off2on
      pair build: skip/size/off2on/oneside
      stencil: none
      bin: none
  (3) neighbor class addition, perpetual
      attributes: half, newton off, size, history
      pair build: half/size/bin/atomonly/newtoff
      stencil: full/bin/3d
      bin: standard
Per MPI rank memory allocation (min/avg/max) = 19.92 | 19.92 | 19.92 Mbytes
   Step        Atoms         Temp           c_1            c_2           Press     
         0           4   0              0              0              0            
       100          28   0.36763289     0.43156905     0.21119336     0.005627034  
       200          28   0.62433559     0.73291569     0.35866087     0.009556157  
       300          28   0.95860848     1.125323       0.55068998     0.014672579  
       400          28   1.3704516      1.608791       0.78728068     0.020976299  
WARNING: Fewer insertions than requested (src/GRANULAR/fix_pour.cpp:691)
       500          48   0.95482403     1.0436449      0.51675284     0.025440323  
       600          48   0.86515042     0.94562952     0.46979853     0.023349292  
       700          48   0.91653827     1.0017976      0.50260392     0.032544978  
       800          48   0.76003034     0.83073083     0.42839142     0.024158751  
       900          72   0.67093513     0.71099096     0.36468692     0.027844556  
      1000          72   0.68959976     0.73076989     0.37895041     0.025596063  
      1100          72   0.6356391      0.67358771     0.35413027     0.026689915  
      1200          72   0.6694845      0.70945372     0.37432259     0.054490577  
WARNING: Fewer insertions than requested (src/GRANULAR/fix_pour.cpp:691)
      1300          92   0.49826871     0.52117762     0.27762625     0.041204925  
      1400          92   0.50701183     0.53032272     0.28089642     0.027699075  
      1500          92   0.48454184     0.50681963     0.27191721     0.026619921  
      1600          92   0.46085667     0.48204548     0.25780353     0.04344914   
      1700         103   0.36517629     0.38008145     0.20671684     0.041198073  
      1800         103   0.31739376     0.33034861     0.18118149     0.035738269  
      1900         103   0.28225283     0.29377336     0.16201351     0.018724293  
      2000         103   0.227682       0.23697514     0.13249413     0.023733876  
      2100         102   0.26019889     0.27092874     0.14760003     0.018885263  
      2200         101   0.19718607     0.20540216     0.11638448     0.022395242  
      2300         101   0.12295759     0.12808082     0.077123809    0.013436933  
      2400         101   0.058908162    0.061362669    0.041685498    0.022568021  
      2500         101   0.038499873    0.040104035    0.02833881     0.012037492  
      2600         101   0.029869994    0.031114577    0.021917634    0.0074148049 
      2700         101   0.020872563    0.021742254    0.016242574    0.0089208292 
      2800         101   0.015480196    0.016125205    0.012199058    0.0089055421 
      2900         101   0.010380685    0.010813214    0.0084268858   0.0085328603 
      3000         100   0.0083492416   0.0087007886   0.0068722456   0.0068774296 
      3100         100   0.0078419239   0.0081721101   0.0063334276   0.0065337966 
      3200         100   0.0065815261   0.0068586429   0.0055596839   0.0070116251 
      3300         100   0.0045519984   0.0047436614   0.003922226    0.0070585537 
      3400         100   0.0033346172   0.0034750222   0.0030426885   0.0064202264 
      3500         100   0.0029928091   0.0031188221   0.0027906911   0.0063411178 
      3600         100   0.0018851604   0.0019645355   0.0019007517   0.0075191207 
      3700         100   0.001565495    0.0016314106   0.0016546156   0.006421971  
      3800         100   0.0019937991   0.0020777485   0.0018451162   0.0064470497 
      3900         100   0.0011934541   0.0012437048   0.0013342839   0.0078668427 
      4000         100   0.0011332887   0.0011810061   0.001293095    0.0064283486 
      4100         100   0.00083077553  0.00086575555  0.0010797129   0.006804152  
      4200         100   0.00078439468  0.00081742182  0.0010732027   0.0065938533 
      4300         100   0.00070956444  0.00073944084  0.0008867931   0.0072222432 
      4400         100   0.00066838017  0.0006965225   0.00079578552  0.0074431078 
      4500         100   0.00061412663  0.0006399846   0.00071443101  0.0072145603 
      4600         100   0.00058665487  0.00061135613  0.00068805343  0.0066366602 
      4700         100   0.00058147103  0.00060595402  0.00067365886  0.0066830189 
      4800         100   0.00054867266  0.00057177467  0.00064500842  0.0066049949 
      4900         100   0.00049813885  0.00051911311  0.00060680714  0.0067116252 
      5000         100   0.00049020933  0.00051084972  0.00059519035  0.0066444286 
Loop time of 0.115926 on 1 procs for 5000 steps with 100 atoms

Performance: 18632651.818 tau/day, 43131.138 timesteps/s, 4.313 Matom-step/s
99.4% CPU use with 1 MPI tasks x 1 OpenMP threads

MPI task timing breakdown:
Section |  min time  |  avg time  |  max time  |%varavg| %total
---------------------------------------------------------------
Pair    | 0.093304   | 0.093304   | 0.093304   |   0.0 | 80.49
Neigh   | 0.006434   | 0.006434   | 0.006434   |   0.0 |  5.55
Comm    | 0.00050603 | 0.00050603 | 0.00050603 |   0.0 |  0.44
Output  | 0.00045958 | 0.00045958 | 0.00045958 |   0.0 |  0.40
Modify  | 0.013498   | 0.013498   | 0.013498   |   0.0 | 11.64
Other   |            | 0.001724   |            |       |  1.49

Nlocal:            100 ave         100 max         100 min
Histogram: 1 0 0 0 0 0 0 0 0 0
Nghost:              0 ave           0 max           0 min
Histogram: 1 0 0 0 0 0 0 0 0 0
Neighs:              0 ave           0 max           0 min
Histogram: 1 0 0 0 0 0 0 0 0 0

Total # of neighbors = 0
Ave neighs/atom = 0
Neighbor list builds = 315
Dangerous builds = 0

fix             1 tri move rotate 0 0 0 0 0 1 25
run             5000
Generated 0 of 1 mixed pair_coeff terms from geometric mixing rule
Per MPI rank memory allocation (min/avg/max) = 20.8 | 20.8 | 20.8 Mbytes
   Step        Atoms         Temp           c_1            c_2           Press     
      5000         100   0.00049020933  0.00051084972  0.00059519035  0.0067155489 
      5100         100   0.51316738     0.024131488    0.024186061    0.034209048  
      5200          97   0.54548023     0.04190242     0.046627282    0.041385183  
      5300          96   0.5544794      0.045763335    0.0491888      0.03482652   
      5400          93   0.56923023     0.043842063    0.049459767    0.035397881  
      5500          92   0.5765154      0.045423236    0.051280278    0.033828547  
      5600          90   0.5867441      0.043637007    0.049846346    0.033954373  
      5700          88   0.5996822      0.044111708    0.05003946     0.03499799   
      5800          86   0.61371143     0.045115947    0.048503958    0.033986938  
      5900          84   0.62943387     0.047239646    0.048329907    0.033503277  
      6000          83   0.64038654     0.051289959    0.050383046    0.035529098  
      6100          80   0.66685432     0.055605485    0.051374674    0.033588863  
      6200          77   0.69260384     0.057316841    0.04962011     0.033358199  
      6300          76   0.70120441     0.057454247    0.048136328    0.03508321   
      6400          75   0.71186276     0.059525205    0.049220369    0.033323208  
      6500          75   0.71231759     0.06000603     0.050101908    0.035358026  
      6600          74   0.72397413     0.062884521    0.051148811    0.034299648  
      6700          73   0.73133218     0.060953493    0.049986591    0.033097436  
      6800          73   0.73073539     0.060321596    0.05016658     0.033100595  
      6900          73   0.73028634     0.059846132    0.049790141    0.032846868  
      7000          73   0.73200365     0.061664464    0.050669584    0.033441203  
      7100          72   0.74168419     0.06191788     0.050770608    0.036096018  
      7200          71   0.74843927     0.058782869    0.049002852    0.033400158  
      7300          70   0.75665117     0.056890015    0.04883895     0.032721441  
      7400          70   0.75741822     0.057704271    0.050202685    0.034421367  
      7500          68   0.77575963     0.054997075    0.049328761    0.032602591  
      7600          67   0.78584054     0.054103163    0.049520051    0.032343799  
      7700          65   0.8073378      0.052642333    0.049201504    0.032207638  
      7800          65   0.8081566      0.053515712    0.051406392    0.032389182  
      7900          62   0.84368962     0.051824341    0.049862068    0.033817057  
      8000          62   0.844841       0.053056522    0.051604783    0.032236841  
      8100          60   0.87179218     0.053175622    0.050910819    0.031695887  
      8200          58   0.89745512     0.04988419     0.048990871    0.031591469  
      8300          57   0.9122815      0.049551625    0.049941656    0.031477051  
      8400          55   0.94360969     0.048876879    0.048759693    0.031648521  
      8500          54   0.96150065     0.04996847     0.049581113    0.031214379  
      8600          53   0.97695061     0.047715668    0.049530226    0.033806371  
      8700          53   0.97908715     0.050030252    0.051909404    0.031613602  
      8800          50   1.0337689      0.047635518    0.049775292    0.030904232  
      8900          50   1.0339312      0.047812173    0.050856542    0.030855227  
      9000          49   1.0512514      0.04429519     0.049805779    0.030781567  
      9100          48   1.07204        0.043600015    0.049514928    0.032834033  
      9200          47   1.0948999      0.044150334    0.049039805    0.030649354  
      9300          47   1.0956703      0.044994146    0.050864745    0.030606537  
      9400          46   1.1165826      0.042320471    0.048913724    0.031176327  
      9500          46   1.1160483      0.041733998    0.049690854    0.030478813  
      9600          46   1.1167761      0.042532815    0.052223403    0.030438818  
      9700          43   1.1901789      0.03885352     0.048128373    0.030185374  
      9800          42   1.2177662      0.038306365    0.048030092    0.030118856  
      9900          41   1.2464264      0.037388181    0.046428678    0.030009299  
     10000          40   1.2775843      0.037563124    0.046784885    0.029915312  
Loop time of 0.0969332 on 1 procs for 5000 steps with 40 atoms

Performance: 22283380.473 tau/day, 51581.899 timesteps/s, 2.063 Matom-step/s
99.5% CPU use with 1 MPI tasks x 1 OpenMP threads

MPI task timing breakdown:
Section |  min time  |  avg time  |  max time  |%varavg| %total
---------------------------------------------------------------
Pair    | 0.081625   | 0.081625   | 0.081625   |   0.0 | 84.21
Neigh   | 0.0026962  | 0.0026962  | 0.0026962  |   0.0 |  2.78
Comm    | 0.00037796 | 0.00037796 | 0.00037796 |   0.0 |  0.39
Output  | 0.00022972 | 0.00022972 | 0.00022972 |   0.0 |  0.24
Modify  | 0.01073    | 0.01073    | 0.01073    |   0.0 | 11.07
Other   |            | 0.001275   |            |       |  1.32

Nlocal:             40 ave          40 max          40 min
Histogram: 1 0 0 0 0 0 0 0 0 0
Nghost:              0 ave           0 max           0 min
Histogram: 1 0 0 0 0 0 0 0 0 0
Neighs:              0 ave           0 max           0 min
Histogram: 1 0 0 0 0 0 0 0 0 0

Total # of neighbors = 0
Ave neighs/atom = 0
Neighbor list builds = 171
Dangerous builds = 0

unfix           1
set             group tri angmom 0.0 0.0 0.0
Setting atom values ...
  4 settings made for angmom
velocity        tri set 0.0 0.0 0.0
run             5000
Generated 0 of 1 mixed pair_coeff terms from geometric mixing rule
Per MPI rank memory allocation (min/avg/max) = 19.92 | 19.92 | 19.92 Mbytes
   Step        Atoms         Temp           c_1            c_2           Press     
     10000          40   0.033710496    0.037563124    0.046784885    0.0060177971 
     10100          40   0.008350598    0.0093049521   0.0091896886   0.0020776788 
     10200          40   0.0032196251   0.0035875823   0.0047187004   0.0020929429 
     10300          40   0.003074776    0.0034261789   0.0046427426   0.0021052515 
     10400          40   0.0031157838   0.0034718734   0.004856575    0.0021457396 
     10500          40   0.0031292022   0.0034868253   0.0049680123   0.0021667122 
     10600          40   0.0038385313   0.0042772206   0.0057310807   0.0024238137 
     10700          40   0.004663923    0.0051969428   0.0062810618   0.002255643  
     10800          40   0.0036518061   0.0040691553   0.0056166639   0.0032679054 
     10900          40   0.0019046025   0.0021222714   0.0045147726   0.0028075066 
     11000          40   0.0018054459   0.0020117826   0.0046966002   0.0029000934 
     11100          40   0.0014689243   0.0016368014   0.0047089682   0.003184008  
     11200          40   0.00159521     0.0017775197   0.0047292571   0.0034765604 
     11300          40   0.0012702611   0.0014154338   0.0043533436   0.0038607805 
     11400          40   0.0012689595   0.0014139835   0.0044007965   0.0041417788 
     11500          39   0.0011129045   0.0012438344   0.0033042704   0.003411547  
     11600          39   0.0011618958   0.0012985895   0.0030573289   0.0036027675 
     11700          39   0.0013424951   0.0015004358   0.0029540459   0.0035594287 
     11800          39   0.0018999747   0.0021235012   0.0032183588   0.0033530708 
     11900          39   0.0015010821   0.0016776799   0.0027901181   0.0046438176 
     12000          39   0.0011026426   0.0012323652   0.0024756126   0.0033364804 
     12100          39   0.0010322424   0.0011536826   0.0023383324   0.0035900213 
     12200          39   0.0010197784   0.0011397524   0.0023038911   0.0035736597 
     12300          39   0.0010224401   0.0011427272   0.0023015719   0.003786224  
     12400          39   0.0010643004   0.0011895122   0.002318115    0.0039615405 
     12500          38   0.0010381158   0.0011639481   0.0017202978   0.0029813267 
     12600          38   0.0010235278   0.0011475917   0.0015721418   0.0030086661 
     12700          38   0.0010139147   0.0011368134   0.0015400591   0.0030376727 
     12800          38   0.0010067839   0.0011288184   0.0014879146   0.0030564903 
     12900          38   0.0009937729   0.0011142302   0.001460258    0.0030525812 
     13000          38   0.001001434    0.0011228199   0.0014515743   0.0030142368 
     13100          38   0.0010142745   0.0011372169   0.0014034328   0.0030252895 
     13200          38   0.0010242826   0.0011484381   0.0013960591   0.0030852247 
     13300          38   0.001007325    0.001129425    0.0013081786   0.0030785567 
     13400          38   0.00097832146  0.0010969059   0.0012653593   0.0030126927 
     13500          38   0.0009866112   0.0011062004   0.0012614822   0.0029524588 
     13600          38   0.0010207524   0.00114448     0.0012748954   0.002944346  
     13700          38   0.0010472021   0.0011741357   0.00128521     0.002949452  
     13800          37   0.0011159992   0.0012554991   0.0013465054   0.0027196698 
     13900          37   0.00120049     0.0013505512   0.0014771932   0.0026226585 
     14000          37   0.00097694121  0.0010990589   0.0012122143   0.0026510833 
     14100          37   0.0010386996   0.001168537    0.0013273913   0.0026956601 
     14200          37   0.0010982157   0.0012354927   0.0014632336   0.0027094842 
     14300          37   0.0010320523   0.0011610588   0.0014330061   0.0027535638 
     14400          37   0.00066711605  0.00075050555  0.0010251785   0.0031168691 
     14500          37   0.00070035894  0.00078790381  0.001126129    0.0032043009 
     14600          37   0.00071388339  0.00080311881  0.0011827293   0.0032681203 
     14700          37   0.00068040272  0.00076545307  0.001199516    0.003216445  
     14800          37   0.000669364    0.0007530345   0.0012278322   0.0031330136 
     14900          37   0.00065627917  0.00073831406  0.0012584263   0.0030688817 
     15000          37   0.0006408291   0.00072093274  0.0012652082   0.0030277    
Loop time of 0.054088 on 1 procs for 5000 steps with 37 atoms

Performance: 39934888.383 tau/day, 92441.871 timesteps/s, 3.420 Matom-step/s
99.7% CPU use with 1 MPI tasks x 1 OpenMP threads

MPI task timing breakdown:
Section |  min time  |  avg time  |  max time  |%varavg| %total
---------------------------------------------------------------
Pair    | 0.045643   | 0.045643   | 0.045643   |   0.0 | 84.39
Neigh   | 0.00026031 | 0.00026031 | 0.00026031 |   0.0 |  0.48
Comm    | 0.0002967  | 0.0002967  | 0.0002967  |   0.0 |  0.55
Output  | 0.0001926  | 0.0001926  | 0.0001926  |   0.0 |  0.36
Modify  | 0.0068287  | 0.0068287  | 0.0068287  |   0.0 | 12.63
Other   |            | 0.0008668  |            |       |  1.60

Nlocal:             37 ave          37 max          37 min
Histogram: 1 0 0 0 0 0 0 0 0 0
Nghost:              0 ave           0 max           0 min
Histogram: 1 0 0 0 0 0 0 0 0 0
Neighs:              0 ave           0 max           0 min
Histogram: 1 0 0 0 0 0 0 0 0 0

Total # of neighbors = 0
Ave neighs/atom = 0
Neighbor list builds = 39
Dangerous builds = 0
Total wall time: 0:00:00
