LAMMPS (4 Jul 2026 - Development - patch_4Jul2026-197-g34022a802c)
OMP_NUM_THREADS environment is not set. Defaulting to 1 thread.
  using 1 OpenMP thread(s) per MPI task
# pouring spheres into box made of triangles

units           lj
atom_style      tri
atom_modify     map array
boundary        f f f
dimension       3
comm_modify     vel yes cutoff 12.5

region          box block -10 10 -10 10 -10 10 units box
create_box      2 box
Created orthogonal box = (-10 -10 -10) to (10 10 10)
  1 by 1 by 1 MPI processor grid

fix             20 all surface/local input stl 2 1 surf.tribox.stl
Reading STL file for triangle particles ...
Reading STL object STL version of surf.tribox with 24 triangles from file surf.tribox.stl
Fix surface/local triangle creation:
  24 tris
  36 tri edges
  14 tri corner points
  36 edge connections
  84 corner point connections
  0 free edges
  0 free corner points
  8.485281374238568 min edge length
  12.000000000000005 max edge length
  35.999999999999986 min tri area
  36.000000000000036 max tri area

pair_style      hybrid granular surf/granular
pair_coeff      1 1 granular hooke 4000.0 100.0                          tangential linear_history 1000.0 1.0 0.5                          damping mass_velocity
pair_coeff      1 2 surf/granular hooke 4000.0 100.0                          tangential linear_history 1000.0 1.0 0.5                          damping mass_velocity
pair_coeff      2 2 none

group           sphere type 1
0 atoms in group sphere
group           tri type 2
24 atoms in group tri

neighbor        0.3 bin
neigh_modify    delay 0 every 1 check yes

fix             2 sphere nve/sphere
fix             3 sphere gravity 1.0 vector 0 0 -1

region          slab block -2 2 -2 2 -2 2 units box
fix             ins sphere pour 100 1 4767548 vol 0.4 10                 diam range 0.5 2.0 region slab ignore

timestep        0.005

compute         1 sphere temp
compute_modify  1 dynamic/dof yes

compute         2 sphere temp/sphere
compute_modify  2 dynamic/dof yes

thermo          100
thermo_style    custom step atoms temp c_1 c_2 press
thermo_modify   lost ignore
compute_modify  thermo_temp dynamic/dof yes

#dump            viz all image 100 tribox.surf-*.ppm type diameter #                    tri atom 1 0.2 size 800 800 zoom 1.6 shiny 0.3 #                    fsaa yes view 80 10 box yes 0.025 region slab blue frame 0.15
#dump_modify     viz pad 6 backcolor black backcolor2 white boxcolor gray #                    acolor 1 slategray acolor 2 forestgreen atrans 2 0.25 #                    lights 0.15 0.9 0.45 0.9

run             5000
Generated 0 of 1 mixed pair_coeff terms from geometric mixing rule
Particle insertion: 6 every 566 steps, 100 by step 9057
Neighbor list info ...
  update: every = 1 steps, delay = 0 steps, check = yes
  max neighbors/atom: 2000, page size: 100000
  master list distance cutoff = 7.6245553
  ghost atom cutoff = 12.5
  binsize = 3.8122777, bins = 6 6 6
  3 neighbor lists, perpetual/occasional/extra = 3 0 0
  (1) pair granular, perpetual, skip from (3)
      attributes: half, newton on, size, history, off2on
      pair build: skip/size/off2on
      stencil: none
      bin: none
  (2) pair surf/granular, perpetual, skip from (3)
      attributes: half, newton on, size, history, onesided, off2on
      pair build: skip/size/off2on/oneside
      stencil: none
      bin: none
  (3) neighbor class addition, perpetual
      attributes: half, newton off, size, history
      pair build: half/size/bin/atomonly/newtoff
      stencil: full/bin/3d
      bin: standard
Per MPI rank memory allocation (min/avg/max) = 18.99 | 18.99 | 18.99 Mbytes
   Step        Atoms         Temp           c_1            c_2           Press     
         0          24   0              0              0              0            
       100          30   0.059189894    0.34330139     0.15604608     0.00021456337
       200          30   0.11993596     0.69562856     0.3161948      0.00043476785
       300          30   0.20280707     1.176281       0.5346732      0.00073517565
       400          30   0.30780324     1.7852588      0.81148128     0.0011157868 
       500          30   0.41966116     2.4340347      1.1063794      0.0015212717 
       600          36   0.8228065      2.6180207      1.2520968      0.0035997784 
       700          36   0.70048249     2.2288079      1.0659516      0.0031468067 
       800          36   0.84885713     2.700909       1.2932891      0.003815425  
       900          36   0.48948975     1.5574674      0.80994809     0.0077469864 
      1000          36   0.47726451     1.5185689      0.78514486     0.0020805293 
      1100          36   0.40430255     1.2864172      0.6840083      0.0019863346 
      1200          42   0.45943843     1.1080574      0.57854707     0.0027419576 
      1300          42   0.27199232     0.65598148     0.35810239     0.0029022306 
      1400          42   0.39694782     0.95734474     0.50363154     0.0025912264 
      1500          42   0.51332465     1.2380183      0.64395079     0.0031816572 
      1600          42   0.64137514     1.5468459      0.78599316     0.0039375796 
      1700          48   0.61658573     1.2599795      0.65452036     0.0024901186 
      1800          48   0.31316908     0.63995421     0.35578126     0.0076007869 
      1900          48   0.42198636     0.86231996     0.46479994     0.0031781025 
      2000          48   0.52925649     1.0815241      0.57226186     0.0048922063 
      2100          48   0.32867311     0.67163636     0.36755099     0.0026587532 
      2200          48   0.37422206     0.76471464     0.40682801     0.0025076922 
      2300          54   0.62483487     1.1419396      0.58502932     0.0052017037 
      2400          54   0.48665163     0.88939781     0.46123649     0.0041344328 
      2500          54   0.38918142     0.71126259     0.37880411     0.003703454  
      2600          54   0.48302697     0.88277342     0.46510793     0.035626788  
      2700          54   0.26899233     0.49160667     0.28017866     0.0076525308 
      2800          54   0.37135377     0.67868102     0.39998187     0.0029045592 
      2900          60   0.38282621     0.64533561     0.37868276     0.0055358483 
      3000          60   0.45620003     0.76902291     0.4401739      0.0048464034 
      3100          60   0.4054912      0.68354232     0.40694384     0.0046450261 
      3200          60   0.32830439     0.55342739     0.34125516     0.0036754309 
      3300          60   0.16648374     0.28064403     0.18221371     0.0085117271 
      3400          66   0.16934974     0.26848129     0.16503735     0.0027792548 
      3500          66   0.27229081     0.43168054     0.2583287      0.0038491366 
      3600          66   0.22569984     0.35781682     0.21845992     0.0041376788 
      3700          66   0.26266248     0.41641613     0.24429144     0.0042113898 
      3800          66   0.34142693     0.5412866      0.30326702     0.0047131674 
      3900          66   0.36308229     0.57561827     0.32421741     0.004836165  
      4000          72   0.28609331     0.43218351     0.24351386     0.016179101  
      4100          72   0.33307432     0.50315483     0.27966369     0.0069773228 
      4200          72   0.35779451     0.54049809     0.29883817     0.012055587  
      4300          72   0.17968891     0.27144495     0.16010185     0.0040279511 
      4400          72   0.34218399     0.51691623     0.33130912     0.0054393586 
      4500          72   0.260077       0.39288227     0.26902184     0.0045695759 
      4600          78   0.36310851     0.52753501     0.32844208     0.0070857798 
      4700          78   0.41092257     0.59700072     0.36094958     0.0063083495 
      4800          78   0.15845358     0.23020614     0.18483354     0.0058832871 
      4900          78   0.14858105     0.21586304     0.17755892     0.0063790824 
      5000          78   0.10468287     0.15208644     0.14477643     0.0055785801 
Loop time of 0.0592849 on 1 procs for 5000 steps with 78 atoms

Performance: 36434221.841 tau/day, 84338.476 timesteps/s, 6.578 Matom-step/s
99.6% CPU use with 1 MPI tasks x 1 OpenMP threads

MPI task timing breakdown:
Section |  min time  |  avg time  |  max time  |%varavg| %total
---------------------------------------------------------------
Pair    | 0.047773   | 0.047773   | 0.047773   |   0.0 | 80.58
Neigh   | 0.0057436  | 0.0057436  | 0.0057436  |   0.0 |  9.69
Comm    | 0.0004615  | 0.0004615  | 0.0004615  |   0.0 |  0.78
Output  | 0.00020977 | 0.00020977 | 0.00020977 |   0.0 |  0.35
Modify  | 0.0034197  | 0.0034197  | 0.0034197  |   0.0 |  5.77
Other   |            | 0.001678   |            |       |  2.83

Nlocal:             78 ave          78 max          78 min
Histogram: 1 0 0 0 0 0 0 0 0 0
Nghost:              0 ave           0 max           0 min
Histogram: 1 0 0 0 0 0 0 0 0 0
Neighs:              0 ave           0 max           0 min
Histogram: 1 0 0 0 0 0 0 0 0 0

Total # of neighbors = 0
Ave neighs/atom = 0
Neighbor list builds = 514
Dangerous builds = 0

fix             1 tri move rotate 0 0 0 0 0 1 25
run             5000
Generated 0 of 1 mixed pair_coeff terms from geometric mixing rule
Per MPI rank memory allocation (min/avg/max) = 19.86 | 19.86 | 19.86 Mbytes
   Step        Atoms         Temp           c_1            c_2           Press     
      5000          78   0.10468287     0.15208644     0.14477643     0.0054175491 
      5100          84   8.0244834      0.59979815     0.38103714     0.086442197  
      5200          84   8.0490257      0.63432373     0.40457115     0.086562003  
      5300          84   7.9500208      0.49504564     0.33580112     0.08948188   
      5400          84   7.9812667      0.5390017      0.35565988     0.085502948  
      5500          84   8.0185567      0.59146051     0.37430138     0.09005451   
      5600          90   7.4935494      0.55818244     0.32511782     0.08826777   
      5700          90   7.5542453      0.64128915     0.36488207     0.089507548  
      5800          90   7.5515673      0.63762235     0.42750922     0.11458799   
      5900          90   7.5274572      0.6046101      0.40074124     0.086599364  
      6000          90   7.5735         0.66765332     0.42452387     0.087585007  
      6100          90   7.5987116      0.70217384     0.42785763     0.090676432  
      6200          96   7.164585       0.70410623     0.41000761     0.091827329  
      6300          96   7.2159508      0.77283509     0.43800649     0.091455167  
      6400          96   7.2444896      0.81102083     0.45523407     0.091565366  
      6500          96   7.2866468      0.86742839     0.48044206     0.099545222  
      6600          96   7.3191747      0.91095153     0.50154409     0.090906881  
      6700         102   6.845244       0.78864427     0.43217938     0.096473316  
      6800         102   6.8818491      0.83665871     0.44900096     0.097156342  
      6900         102   7.1158959      1.1436552      0.63361068     0.095226556  
      7000         102   7.1034133      1.1272819      0.62108569     0.095879809  
      7100         102   6.9092288      0.87257234     0.49244962     0.09486179   
      7200         102   6.8529173      0.79870924     0.45301122     0.091371929  
      7300         108   6.573126       0.87566799     0.48463407     0.092586612  
      7400         108   6.6240023      0.94125555     0.51650515     0.097711125  
      7500         108   6.6856783      1.0207655      0.57269418     0.11970472   
      7600         108   6.6087301      0.92156735     0.51252896     0.10637963   
      7700         108   6.5251801      0.81385832     0.4529842      0.10883123   
      7800         108   6.8644769      1.251265       0.6888841      0.098687074  
      7900         114   6.4453419      1.0975236      0.60562749     0.099218798  
      8000         114   6.4836391      1.1461482      0.62743421     0.099065289  
      8100         114   6.3077276      0.92279989     0.50621638     0.1087246    
      8200         114   6.2883549      0.89820298     0.48427679     0.099427834  
      8300         114   6.3269675      0.94722801     0.50401099     0.10125866   
      8400         120   6.1340405      1.0453346      0.55023306     0.11535063   
      8500         120   6.1805822      1.1036341      0.58121419     0.10087935   
      8600         120   6.1814806      1.1047596      0.58486991     0.10379208   
      8700         120   6.0946831      0.9960343      0.52308237     0.11312172   
      8800         120   5.9822627      0.85521286     0.45514243     0.11030885   
      8900         120   5.9588345      0.82586607     0.44178308     0.10164726   
      9000         124   5.798545       0.83411115     0.44677273     0.098529539  
      9100         124   5.7571787      0.78271664     0.41465099     0.10570667   
      9200         124   5.7769717      0.80730793     0.42075868     0.10654735   
      9300         124   5.8423752      0.88856686     0.45739604     0.1031402    
      9400         124   5.7907505      0.82442703     0.42490464     0.12865767   
      9500         124   5.7277093      0.74610311     0.38337627     0.1153932    
      9600         124   5.7205851      0.7372519      0.3789752      0.10087131   
      9700         124   5.7177796      0.73376627     0.37410088     0.10263946   
      9800         124   5.7246937      0.74235648     0.38129364     0.10247235   
      9900         124   5.7214239      0.73829398     0.37764472     0.10161205   
     10000         124   5.7209608      0.73771859     0.37635837     0.10227831   
Loop time of 0.224492 on 1 procs for 5000 steps with 124 atoms

Performance: 9621706.827 tau/day, 22272.470 timesteps/s, 2.762 Matom-step/s
99.7% CPU use with 1 MPI tasks x 1 OpenMP threads

MPI task timing breakdown:
Section |  min time  |  avg time  |  max time  |%varavg| %total
---------------------------------------------------------------
Pair    | 0.19162    | 0.19162    | 0.19162    |   0.0 | 85.36
Neigh   | 0.017422   | 0.017422   | 0.017422   |   0.0 |  7.76
Comm    | 0.00057871 | 0.00057871 | 0.00057871 |   0.0 |  0.26
Output  | 0.00033232 | 0.00033232 | 0.00033232 |   0.0 |  0.15
Modify  | 0.012236   | 0.012236   | 0.012236   |   0.0 |  5.45
Other   |            | 0.0023     |            |       |  1.02

Nlocal:            124 ave         124 max         124 min
Histogram: 1 0 0 0 0 0 0 0 0 0
Nghost:              0 ave           0 max           0 min
Histogram: 1 0 0 0 0 0 0 0 0 0
Neighs:              0 ave           0 max           0 min
Histogram: 1 0 0 0 0 0 0 0 0 0

Total # of neighbors = 0
Ave neighs/atom = 0
Neighbor list builds = 509
Dangerous builds = 1

unfix           1
set             group tri angmom 0.0 0.0 0.0
Setting atom values ...
  24 settings made for angmom
velocity        tri set 0.0 0.0 0.0
run             5000
Generated 0 of 1 mixed pair_coeff terms from geometric mixing rule
Per MPI rank memory allocation (min/avg/max) = 18.99 | 18.99 | 18.99 Mbytes
   Step        Atoms         Temp           c_1            c_2           Press     
     10000         124   0.5937735      0.73771859     0.37635837     0.035718311  
     10100         124   0.46802299     0.58148311     0.43903492     0.04015193   
     10200         124   0.22103681     0.2746215      0.25870429     0.020568269  
     10300         124   0.15196024     0.18879909     0.20619303     0.025627935  
     10400         124   0.15657758     0.19453578     0.20745772     0.019398618  
     10500         124   0.11316834     0.14060309     0.17602437     0.015329567  
     10600         124   0.1637835      0.20348859     0.21618434     0.013730617  
     10700         124   0.1381629      0.17165694     0.1988283      0.01275222   
     10800         124   0.11937333     0.14831232     0.18581143     0.011886501  
     10900         124   0.061640574    0.076583744    0.11689164     0.011255312  
     11000         124   0.07531036     0.093567417    0.12259555     0.0094607981 
     11100         124   0.034399792    0.042739136    0.078611942    0.011688294  
     11200         124   0.026561493    0.033000643    0.056482793    0.01065675   
     11300         124   0.033391219    0.04148606     0.05607436     0.0093972017 
     11400         124   0.0470968      0.058514206    0.061599594    0.0094338163 
     11500         124   0.031432945    0.039053052    0.041933007    0.011872583  
     11600         124   0.12842058     0.15955284     0.098472908    0.012530948  
     11700         124   0.058954068    0.073245963    0.053081523    0.008109492  
     11800         124   0.034927801    0.043395146    0.035871516    0.0091189027 
     11900         124   0.021344156    0.026518497    0.025949871    0.015478369  
     12000         124   0.0099743565   0.012392382    0.018307417    0.011742899  
     12100         124   0.0060063361   0.0074624175   0.015592869    0.01186819   
     12200         124   0.0067812068   0.0084251358   0.016248605    0.012829685  
     12300         124   0.011755895    0.014605809    0.019078254    0.010921224  
     12400         124   0.022940909    0.028502342    0.02486008     0.011652592  
     12500         124   0.034320415    0.042640515    0.031573598    0.01213702   
     12600         124   0.018056845    0.022434262    0.018109607    0.027495694  
     12700         124   0.0047589384   0.0059126204   0.0069682168   0.014339852  
     12800         124   0.0038560744   0.0047908803   0.0054254884   0.014735801  
     12900         124   0.0040997114   0.0050935808   0.0055969156   0.011709874  
     13000         124   0.0055990139   0.0069563506   0.0062240957   0.01298167   
     13100         124   0.0023001722   0.0028577897   0.0035627667   0.013113141  
     13200         124   0.0015572847   0.0019348083   0.0026586146   0.011327033  
     13300         124   0.0018139479   0.0022536929   0.0029795862   0.011389575  
     13400         124   0.001639141    0.0020365085   0.0028923836   0.013454921  
     13500         124   0.0052557106   0.0065298223   0.0067055911   0.015988682  
     13600         124   0.0016450404   0.002043838    0.0036044002   0.0095708586 
     13700         124   0.0019413332   0.0024119595   0.0033877915   0.012132281  
     13800         124   0.0025334919   0.0031476717   0.0035806846   0.015450642  
     13900         124   0.0018827303   0.0023391498   0.0031805545   0.012763465  
     14000         124   0.0029463135   0.0036605713   0.0054667616   0.011750434  
     14100         124   0.0033098061   0.0041121834   0.0057384478   0.013499053  
     14200         124   0.0071381888   0.0088686588   0.010948903    0.016215041  
     14300         124   0.0044724568   0.0055566888   0.0073892282   0.014296205  
     14400         124   0.0018648285   0.0023169081   0.0038805811   0.013740248  
     14500         124   0.004382929    0.0054454573   0.0059492465   0.015347225  
     14600         124   0.029413925    0.036544574    0.022505785    0.020852899  
     14700         124   0.079486752    0.098756267    0.067266885    0.083168037  
     14800         124   0.01908878     0.023716363    0.01892089     0.013007773  
     14900         124   0.0066798475   0.0082992044   0.0092957318   0.011295668  
     15000         124   0.0041711017   0.0051822779   0.0063968073   0.017993828  
Loop time of 0.226986 on 1 procs for 5000 steps with 124 atoms

Performance: 9516014.112 tau/day, 22027.810 timesteps/s, 2.731 Matom-step/s
99.7% CPU use with 1 MPI tasks x 1 OpenMP threads

MPI task timing breakdown:
Section |  min time  |  avg time  |  max time  |%varavg| %total
---------------------------------------------------------------
Pair    | 0.2082     | 0.2082     | 0.2082     |   0.0 | 91.73
Neigh   | 0.0084292  | 0.0084292  | 0.0084292  |   0.0 |  3.71
Comm    | 0.00042949 | 0.00042949 | 0.00042949 |   0.0 |  0.19
Output  | 0.00030947 | 0.00030947 | 0.00030947 |   0.0 |  0.14
Modify  | 0.0077353  | 0.0077353  | 0.0077353  |   0.0 |  3.41
Other   |            | 0.001878   |            |       |  0.83

Nlocal:            124 ave         124 max         124 min
Histogram: 1 0 0 0 0 0 0 0 0 0
Nghost:              0 ave           0 max           0 min
Histogram: 1 0 0 0 0 0 0 0 0 0
Neighs:              0 ave           0 max           0 min
Histogram: 1 0 0 0 0 0 0 0 0 0

Total # of neighbors = 0
Ave neighs/atom = 0
Neighbor list builds = 232
Dangerous builds = 4

fix             1 tri move rotate 0 0 0 1 1 1 25
run             5000
Generated 0 of 1 mixed pair_coeff terms from geometric mixing rule
Per MPI rank memory allocation (min/avg/max) = 19.87 | 19.87 | 19.87 Mbytes
   Step        Atoms         Temp           c_1            c_2           Press     
     15000         124   0.0041711017   0.0051822779   0.0063968073   0.017957833  
     15100         124   5.4431989      0.39262045     0.22100013     0.10877288   
     15200         124   5.5312256      0.50198701     0.28756519     0.10625899   
     15300         124   5.6044001      0.59290081     0.3291197      0.10875296   
     15400         124   5.65594        0.65693523     0.36141677     0.10209867   
     15500         123   5.7026697      0.66409871     0.39659727     0.10403384   
     15600         123   5.6769674      0.63210195     0.38533528     0.10438473   
     15700         123   5.6209312      0.56234258     0.35330722     0.098737018  
     15800         123   5.628658       0.57196163     0.34821223     0.11214918   
     15900         123   5.6163433      0.55663107     0.33711537     0.10232175   
     16000         123   5.597529       0.53320928     0.32590166     0.1157335    
     16100         123   5.6057497      0.54344314     0.32597301     0.12356648   
     16200         123   5.6444203      0.59158414     0.34189831     0.11678492   
     16300         123   5.825713       0.81727503     0.46505577     0.10939959   
     16400         123   5.7752422      0.75444403     0.43564876     0.10810074   
     16500         123   5.7708652      0.74899515     0.42339846     0.10263236   
     16600         123   5.7623117      0.7383469      0.4193401      0.11668702   
     16700         123   5.8313492      0.82429154     0.47364113     0.11541971   
     16800         123   5.7988584      0.78384383     0.45004465     0.099797781  
     16900         123   5.7414005      0.71231462     0.40984788     0.11640602   
     17000         123   5.8313305      0.82426828     0.47341634     0.11077274   
     17100         123   5.7497618      0.72272349     0.43454419     0.10001688   
     17200         123   5.7806645      0.76119429     0.46352253     0.10407925   
     17300         123   5.786881       0.76893312     0.47132057     0.099540419  
     17400         123   5.8808136      0.88586963     0.54336515     0.099317962  
     17500         123   5.9158888      0.92953468     0.56858594     0.098342963  
     17600         123   6.0264934      1.0672261      0.63978245     0.11716115   
     17700         123   6.0146713      1.0525088      0.63069626     0.11552878   
     17800         123   5.9617065      0.986573       0.60336971     0.11556358   
     17900         123   5.8877053      0.89444911     0.5425452      0.11550994   
     18000         123   5.7785176      0.75852158     0.45696284     0.14212643   
     18100         123   5.6884798      0.64643375     0.39013334     0.096807167  
     18200         123   5.6798533      0.63569462     0.38059261     0.11608851   
     18300         123   6.1343403      1.2014846      0.79007536     0.13261589   
     18400         123   6.0353303      1.0782272      0.70978194     0.10800957   
     18500         123   6.0047508      1.0401588      0.69166125     0.1010905    
     18600         123   5.7365403      0.70626411     0.4474647      0.11242157   
     18700         123   5.7353099      0.70473239     0.45244082     0.10394288   
     18800         123   5.8036194      0.78977068     0.509003       0.099900303  
     18900         123   5.7776439      0.75743388     0.4776778      0.097128469  
     19000         123   5.8343932      0.828081       0.51774033     0.09816332   
     19100         123   5.8273004      0.81925123     0.50494812     0.11772747   
     19200         123   5.9134937      0.92655298     0.55524941     0.10995053   
     19300         123   5.9253428      0.94130396     0.5549866      0.1169579    
     19400         123   5.9797173      1.0089947      0.57639512     0.11924869   
     19500         123   6.0049317      1.040384       0.59396379     0.10422287   
     19600         123   5.8938617      0.90211316     0.50057586     0.1030037    
     19700         123   5.9025046      0.91287277     0.49620801     0.11199323   
     19800         123   5.9782958      1.0072251      0.54929705     0.10494142   
     19900         123   5.8928962      0.9009112      0.50841703     0.1175017    
     20000         123   5.8930513      0.90110434     0.52617748     0.1156433    
Loop time of 0.209761 on 1 procs for 5000 steps with 123 atoms

Performance: 10297449.357 tau/day, 23836.688 timesteps/s, 2.932 Matom-step/s
99.7% CPU use with 1 MPI tasks x 1 OpenMP threads

MPI task timing breakdown:
Section |  min time  |  avg time  |  max time  |%varavg| %total
---------------------------------------------------------------
Pair    | 0.16493    | 0.16493    | 0.16493    |   0.0 | 78.63
Neigh   | 0.026785   | 0.026785   | 0.026785   |   0.0 | 12.77
Comm    | 0.00064192 | 0.00064192 | 0.00064192 |   0.0 |  0.31
Output  | 0.00032554 | 0.00032554 | 0.00032554 |   0.0 |  0.16
Modify  | 0.014545   | 0.014545   | 0.014545   |   0.0 |  6.93
Other   |            | 0.002534   |            |       |  1.21

Nlocal:            123 ave         123 max         123 min
Histogram: 1 0 0 0 0 0 0 0 0 0
Nghost:              0 ave           0 max           0 min
Histogram: 1 0 0 0 0 0 0 0 0 0
Neighs:              0 ave           0 max           0 min
Histogram: 1 0 0 0 0 0 0 0 0 0

Total # of neighbors = 0
Ave neighs/atom = 0
Neighbor list builds = 621
Dangerous builds = 17

unfix           1
set             group tri angmom 0.0 0.0 0.0
Setting atom values ...
  24 settings made for angmom
velocity        tri set 0.0 0.0 0.0
run             5000
Generated 0 of 1 mixed pair_coeff terms from geometric mixing rule
Per MPI rank memory allocation (min/avg/max) = 18.99 | 18.99 | 18.99 Mbytes
   Step        Atoms         Temp           c_1            c_2           Press     
     20000         123   0.72383791     0.90110434     0.52617748    -0.0068974244 
     20100         123   0.44066485     0.54858278     0.34019449     0.026812043  
     20200         123   0.37338178     0.46482221     0.28748329     0.01186764   
     20300         123   0.46768845     0.58222439     0.34388925     0.033611095  
     20400         123   0.49195979     0.61243974     0.36700804     0.015601516  
     20500         123   0.45996808     0.57261332     0.33606203     0.023723451  
     20600         123   0.34057304     0.42397868     0.26569805     0.04494784   
     20700         123   0.25257981     0.31443609     0.20973872     0.025930204  
     20800         123   0.29874338     0.37190502     0.24178015     0.018830334  
     20900         123   0.22712619     0.28274893     0.19128009     0.0097530891 
     21000         123   0.23722207     0.29531727     0.2061917      0.026835041  
     21100         123   0.22207792     0.27646435     0.18381591     0.014178334  
     21200         123   0.1869105      0.2326845      0.15614651     0.01725481   
     21300         123   0.14912447     0.18564474     0.12927793     0.014039396  
     21400         123   0.13697406     0.17051873     0.11837998     0.011228206  
     21500         123   0.084676201    0.10541323     0.081825771    0.010133476  
     21600         123   0.074015045    0.092141178    0.069187684    0.01490122   
     21700         123   0.06392141     0.079575633    0.058229333    0.013051856  
     21800         123   0.072472669    0.090221078    0.059654328    0.01129656   
     21900         123   0.051945391    0.064666711    0.047292496    0.016023174  
     22000         123   0.032383742    0.040314454    0.031956073    0.014807284  
     22100         123   0.019919742    0.024798046    0.021830788    0.012176984  
     22200         123   0.019216898    0.023923077    0.020436167    0.010710001  
     22300         123   0.025816472    0.032138874    0.026600467    0.014433076  
     22400         123   0.018198565    0.022655356    0.019773198    0.0092256302 
     22500         123   0.0099548818   0.012392812    0.013011653    0.0084171521 
     22600         123   0.0081840189   0.010188268    0.011630463    0.010848992  
     22700         123   0.010733524    0.013362143    0.01327982     0.011592337  
     22800         123   0.012956094    0.016129015    0.013478198    0.011569072  
     22900         123   0.0076622212   0.0095386835   0.0092245191   0.010693098  
     23000         123   0.0048625347   0.0060533596   0.0061460062   0.010011377  
     23100         123   0.0046838331   0.0058308943   0.0055881792   0.011979831  
     23200         123   0.0065764981   0.0081870691   0.0070925224   0.010119398  
     23300         123   0.0063035556   0.0078472835   0.0090757312   0.012951002  
     23400         123   0.0020607599   0.0025654358   0.0048555736   0.011653376  
     23500         123   0.0024786967   0.0030857245   0.0037715871   0.011099523  
     23600         123   0.001799021    0.0022395976   0.0034439506   0.011562179  
     23700         123   0.0021058748   0.0026215992   0.0032426967   0.011689428  
     23800         123   0.039885831    0.049653789    0.062746276    0.014628857  
     23900         123   0.023755055    0.02957262     0.052238432    0.011166     
     24000         123   0.013512382    0.016821537    0.045082194    0.010948207  
     24100         123   0.010536353    0.013116684    0.042744645    0.0099476012 
     24200         123   0.0049279588   0.0061348058   0.037451926    0.010810391  
     24300         123   0.0036894906   0.0045930393   0.036345914    0.01107885   
     24400         123   0.0031733211   0.0039504609   0.031435948    0.012251525  
     24500         123   0.0047973247   0.0059721797   0.031217075    0.01659966   
     24600         123   0.010040095    0.012498894    0.03557191     0.013165717  
     24700         123   0.011268376    0.014027979    0.03395519     0.015511642  
     24800         123   0.016389174    0.02040285     0.035658512    0.0098733906 
     24900         123   0.0048143864   0.0059934198   0.01244759     0.010008632  
     25000         123   0.004615579    0.0057459249   0.010935487    0.011204442  
Loop time of 0.214974 on 1 procs for 5000 steps with 123 atoms

Performance: 10047712.119 tau/day, 23258.593 timesteps/s, 2.861 Matom-step/s
99.7% CPU use with 1 MPI tasks x 1 OpenMP threads

MPI task timing breakdown:
Section |  min time  |  avg time  |  max time  |%varavg| %total
---------------------------------------------------------------
Pair    | 0.19355    | 0.19355    | 0.19355    |   0.0 | 90.04
Neigh   | 0.010649   | 0.010649   | 0.010649   |   0.0 |  4.95
Comm    | 0.00047727 | 0.00047727 | 0.00047727 |   0.0 |  0.22
Output  | 0.0003163  | 0.0003163  | 0.0003163  |   0.0 |  0.15
Modify  | 0.0079112  | 0.0079112  | 0.0079112  |   0.0 |  3.68
Other   |            | 0.002068   |            |       |  0.96

Nlocal:            123 ave         123 max         123 min
Histogram: 1 0 0 0 0 0 0 0 0 0
Nghost:              0 ave           0 max           0 min
Histogram: 1 0 0 0 0 0 0 0 0 0
Neighs:              0 ave           0 max           0 min
Histogram: 1 0 0 0 0 0 0 0 0 0

Total # of neighbors = 0
Ave neighs/atom = 0
Neighbor list builds = 271
Dangerous builds = 0

Total wall time: 0:00:00
