LAMMPS (4 Jul 2026 - Development - patch_4Jul2026-197-g34022a802c)
OMP_NUM_THREADS environment is not set. Defaulting to 1 thread.
  using 1 OpenMP thread(s) per MPI task
# pouring spheres into box made of triangles

units           lj
atom_style      sphere
boundary        f f f
dimension       3
comm_modify     vel yes

region          box block -10 10 -10 10 -10 10 units box
create_box      2 box   # simply for dump_modify to color lines = green
Created orthogonal box = (-10 -10 -10) to (10 10 10)
  1 by 2 by 2 MPI processor grid

pair_style      granular
pair_coeff      * * hooke 4000.0 100.0                     tangential linear_history 1000.0 1.0 0.5                     damping mass_velocity

neighbor        0.3 bin
neigh_modify    delay 0 every 1 check yes

molecule        tris surf.tribox
Read molecule template tris:
LAMMPS data file for tri box
  1 molecules
  0 fragments
  0 bodies
  0 atoms with max type 0
  0 bonds with max type 0
  0 angles with max type 0
  0 dihedrals with max type 0
  0 impropers with max type 0
  24 triangles

fix             20 all surface/global input mol tris                 model * * granular hooke 4000.0 100.0                     tangential linear_history 1000.0 1.0 0.5                     damping mass_velocity
Fix surface/global triangle creation:
  24 tris
  36 tri edges
  14 tri corner points
  36 edge connections
  84 corner point connections
  0 free edges
  0 free corner points
  8.48528137423857 min edge length
  12 max edge length
  36 min tri area
  36 max tri area

fix             2 all nve/sphere
fix             3 all gravity 1.0 vector 0 0 -1

region          slab block -2 2 -2 2 -2 2 units box
fix             ins all pour 100 1 4767548 vol 0.4 10                 diam one 1.0 region slab ignore

timestep        0.005

compute         1 all temp
compute_modify  1 dynamic/dof yes

compute         2 all temp/sphere
compute_modify  2 dynamic/dof yes

thermo          100
thermo_style    custom step atoms temp c_1 c_2 press
thermo_modify   lost ignore
compute_modify  thermo_temp dynamic/dof yes

#dump           2 all image 100 tmp.image.*.ppm type type #               zoom 1.4 adiam 1.0 fix 20 type 2 0.5
#dump_modify        2 pad 5

run             5000
Generated 0 of 1 mixed pair_coeff terms from geometric mixing rule
Particle insertion: 48 every 566 steps, 100 by step 1133
Neighbor list info ...
  update: every = 1 steps, delay = 0 steps, check = yes
  max neighbors/atom: 2000, page size: 100000
  master list distance cutoff = 1.3
  ghost atom cutoff = 1.3
  binsize = 0.65, bins = 31 31 31
  1 neighbor lists, perpetual/occasional/extra = 1 0 0
  (1) pair granular, perpetual
      attributes: half, newton on, size, history
      pair build: half/size/bin/atomonly/newton
      stencil: half/bin/3d
      bin: standard
Per MPI rank memory allocation (min/avg/max) = 11.56 | 11.56 | 11.56 Mbytes
   Step        Atoms         Temp           c_1            c_2           Press     
         0           0   0              0              0              0            
WARNING: Fewer insertions than requested (src/GRANULAR/fix_pour.cpp:691)
       100          30   0.803783       0.803783       0.39507978     0.0029137134 
       200          30   1.1967995      1.1967995      0.5882574      0.0043383984 
       300          30   1.2814686      1.2814686      0.62987441     0.0046453238 
       400          30   0.82831733     0.82831733     0.4099129      0.0030026503 
       500          30   0.83212308     0.83212308     0.4151854      0.0036386707 
WARNING: Fewer insertions than requested (src/GRANULAR/fix_pour.cpp:691)
       600          64   0.51244801     0.51244801     0.26324732     0.0040355281 
       700          64   0.58463368     0.58463368     0.29927695     0.0077364467 
       800          64   0.62279618     0.62279618     0.31820922     0.004914821  
       900          64   0.53272146     0.53272146     0.27927993     0.0041951815 
      1000          64   0.48924648     0.48924648     0.25803281     0.003982541  
      1100          64   0.50058399     0.50058399     0.26562484     0.009853843  
WARNING: Fewer insertions than requested (src/GRANULAR/fix_pour.cpp:691)
      1200          99   0.45803354     0.45803354     0.24120399     0.0079284529 
      1300          99   0.43484749     0.43484749     0.22966323     0.0056127167 
      1400          99   0.40288704     0.40288704     0.21364822     0.0078674873 
      1500          99   0.3473396      0.3473396      0.1861633      0.0067153198 
      1600          99   0.28819242     0.28819242     0.15821974     0.0052080425 
      1700         100   0.2157882      0.2157882      0.11971616     0.0093225264 
      1800         100   0.15176267     0.15176267     0.087527413    0.001713849  
      1900         100   0.098050505    0.098050505    0.060796654    0.0012852205 
      2000         100   0.077673968    0.077673968    0.049226425    0.0023376803 
      2100         100   0.061440168    0.061440168    0.039118586    0.00091226757
      2200         100   0.055162034    0.055162034    0.034488647    0.0012564432 
      2300         100   0.029039944    0.029039944    0.020373761    0.00041276298
      2400         100   0.022312494    0.022312494    0.016230941    0.0011014974 
      2500         100   0.013681023    0.013681023    0.010106195    0.0012843759 
      2600         100   0.010360666    0.010360666    0.0078088753   0.00086123948
      2700         100   0.0061882247   0.0061882247   0.004888143    0.0001724525 
      2800         100   0.0041323792   0.0041323792   0.0035098723   0.00016930288
      2900         100   0.0035550932   0.0035550932   0.002994566    0.0002365251 
      3000         100   0.0039310254   0.0039310254   0.0030730674   0.00029766588
      3100         100   0.0040900076   0.0040900076   0.0029831139   0.00020160792
      3200         100   0.0022734391   0.0022734391   0.0019326296   0.00013298276
      3300         100   0.002517883    0.002517883    0.0020165103   9.7874555e-05
      3400         100   0.001725126    0.001725126    0.0015093132   0.00010465193
      3500         100   0.0014302201   0.0014302201   0.0012665955   8.8087311e-05
      3600         100   0.0012805265   0.0012805265   0.0011469496   0.00011416111
      3700         100   0.0010305396   0.0010305396   0.00093861939  9.2509157e-05
      3800         100   0.00079846419  0.00079846419  0.00075633486  9.8181583e-05
      3900         100   0.00070727185  0.00070727185  0.00067611906  0.00022851352
      4000         100   0.00068425209  0.00068425209  0.00064102563  0.00015564203
      4100         100   0.00070080537  0.00070080537  0.00063949759  6.3389552e-05
      4200         100   0.00064284969  0.00064284969  0.00058967498  1.9880986e-05
      4300         100   0.00058195351  0.00058195351  0.00055407739  2.0789225e-05
      4400         100   0.00053349401  0.00053349401  0.00051408358  3.6463809e-05
      4500         100   0.00031161187  0.00031161187  0.00034359357  4.4997423e-05
      4600         100   0.00028953752  0.00028953752  0.00032383276  3.847876e-05 
      4700         100   0.00024498044  0.00024498044  0.00028961742  5.4130837e-05
      4800         100   0.00023159578  0.00023159578  0.00027840489  3.2913985e-05
      4900         100   0.00023987406  0.00023987406  0.00028261115  3.226161e-05 
      5000         100   0.00029537232  0.00029537232  0.00031875932  4.0569112e-05
Loop time of 0.103115 on 4 procs for 5000 steps with 100 atoms

Performance: 20947580.941 tau/day, 48489.771 timesteps/s, 4.849 Matom-step/s
96.0% CPU use with 4 MPI tasks x 1 OpenMP threads

MPI task timing breakdown:
Section |  min time  |  avg time  |  max time  |%varavg| %total
---------------------------------------------------------------
Pair    | 0.00032054 | 0.0028781  | 0.006194   |   4.9 |  2.79
Neigh   | 0.0016385  | 0.0021261  | 0.0027073  |   1.1 |  2.06
Comm    | 0.0129     | 0.015926   | 0.021404   |   2.6 | 15.45
Output  | 0.00055152 | 0.00095284 | 0.0012292  |   0.0 |  0.92
Modify  | 0.0036518  | 0.035516   | 0.068939   |  16.9 | 34.44
Other   |            | 0.04571    |            |       | 44.33

Nlocal:             25 ave          51 max           0 min
Histogram: 2 0 0 0 0 0 0 0 0 2
Nghost:            3.5 ave           8 max           0 min
Histogram: 2 0 0 0 0 0 0 1 0 1
Neighs:          41.25 ave          87 max           0 min
Histogram: 2 0 0 0 0 0 0 0 1 1

Total # of neighbors = 165
Ave neighs/atom = 1.65
Neighbor list builds = 279
Dangerous builds = 0

fix_modify      20 move * rotate 0 0 0 0 0 1 25
Fix_modify move:
  turned on motion for 24 surfs
run             5000
Generated 0 of 1 mixed pair_coeff terms from geometric mixing rule
Per MPI rank memory allocation (min/avg/max) = 16.19 | 16.25 | 16.31 Mbytes
   Step        Atoms         Temp           c_1            c_2           Press     
      5000         100   0.00029537232  0.00029537232  0.00031875932  3.6155418e-05
      5100         100   0.14773428     0.14773428     0.082486619    0.0051921206 
      5200         100   0.16609316     0.16609316     0.0952665      0.0022996628 
      5300         100   0.17723989     0.17723989     0.0971469      0.0027701432 
      5400         100   0.18784553     0.18784553     0.10075741     0.0025349129 
      5500         100   0.2050333      0.2050333      0.10773126     0.002823713  
      5600         100   0.2149881      0.2149881      0.11168898     0.0028681325 
      5700         100   0.22365714     0.22365714     0.11550171     0.0029259965 
      5800         100   0.23146417     0.23146417     0.11912972     0.0038921067 
      5900         100   0.23838077     0.23838077     0.12213458     0.0032211107 
      6000         100   0.24951884     0.24951884     0.12730906     0.0035122927 
      6100         100   0.25863914     0.25863914     0.13156251     0.0037951849 
      6200         100   0.26512391     0.26512391     0.13457754     0.0047403153 
      6300         100   0.2704603      0.2704603      0.13716691     0.003792857  
      6400         100   0.27539475     0.27539475     0.13970215     0.0040215469 
      6500         100   0.27943353     0.27943353     0.14172231     0.0046533429 
      6600         100   0.28710933     0.28710933     0.1454853      0.0053117663 
      6700         100   0.29150432     0.29150432     0.14735904     0.0052197638 
      6800         100   0.2994102      0.2994102      0.15100098     0.0053596338 
      6900         100   0.31003992     0.31003992     0.15621948     0.0049337817 
      7000         100   0.31318648     0.31318648     0.15780282     0.0061915234 
      7100         100   0.31712111     0.31712111     0.15976968     0.0050569214 
      7200         100   0.31740822     0.31740822     0.16001575     0.0046911726 
      7300         100   0.31265642     0.31265642     0.15741713     0.0048950577 
      7400         100   0.31648889     0.31648889     0.15916403     0.0046154814 
      7500         100   0.31719021     0.31719021     0.15950303     0.0050218399 
      7600         100   0.31996837     0.31996837     0.16085447     0.0051445247 
      7700         100   0.32154154     0.32154154     0.1614034      0.0060553153 
      7800         100   0.32493167     0.32493167     0.16293094     0.0051248096 
      7900         100   0.32464096     0.32464096     0.16285287     0.0065464453 
      8000         100   0.32961666     0.32961666     0.16529706     0.005104375  
      8100         100   0.33154946     0.33154946     0.16613577     0.0059997185 
      8200         100   0.33414265     0.33414265     0.16747535     0.0056653821 
      8300         100   0.33393327     0.33393327     0.16744748     0.005144785  
      8400         100   0.33485671     0.33485671     0.16772981     0.0053647777 
      8500         100   0.3361416      0.3361416      0.16829574     0.0052446957 
      8600         100   0.33660914     0.33660914     0.16854056     0.0058117889 
      8700         100   0.33795881     0.33795881     0.16924893     0.0052216624 
      8800         100   0.33753144     0.33753144     0.16906302     0.0052302221 
      8900         100   0.33904035     0.33904035     0.16968015     0.0053209344 
      9000         100   0.33779881     0.33779881     0.16895474     0.0054789647 
      9100         100   0.33800354     0.33800354     0.16904595     0.005212312  
      9200         100   0.33827218     0.33827218     0.16917486     0.0050751976 
      9300         100   0.34113104     0.34113104     0.17043996     0.005773064  
      9400         100   0.34085052     0.34085052     0.17038336     0.0061915196 
      9500         100   0.34276133     0.34276133     0.17123018     0.0059247973 
      9600         100   0.3403061      0.3403061      0.16998694     0.0059315644 
      9700         100   0.34126061     0.34126061     0.17045224     0.0057475507 
      9800         100   0.34227064     0.34227064     0.17094322     0.0052183574 
      9900         100   0.34216002     0.34216002     0.17087376     0.0056430266 
     10000         100   0.34179059     0.34179059     0.17072973     0.0054297519 
Loop time of 0.163034 on 4 procs for 5000 steps with 100 atoms

Performance: 13248766.376 tau/day, 30668.441 timesteps/s, 3.067 Matom-step/s
98.0% CPU use with 4 MPI tasks x 1 OpenMP threads

MPI task timing breakdown:
Section |  min time  |  avg time  |  max time  |%varavg| %total
---------------------------------------------------------------
Pair    | 0.00017809 | 0.0077828  | 0.016254   |   8.6 |  4.77
Neigh   | 0.0015065  | 0.0023171  | 0.0031763  |   1.7 |  1.42
Comm    | 0.003144   | 0.0075312  | 0.013477   |   5.2 |  4.62
Output  | 0.00053796 | 0.0012667  | 0.0019338  |   1.9 |  0.78
Modify  | 0.015118   | 0.068823   | 0.12416    |  20.5 | 42.21
Other   |            | 0.07531    |            |       | 46.19

Nlocal:             25 ave          53 max           0 min
Histogram: 2 0 0 0 0 0 0 0 1 1
Nghost:              3 ave           7 max           0 min
Histogram: 2 0 0 0 0 0 0 1 0 1
Neighs:          49.75 ave         106 max           0 min
Histogram: 2 0 0 0 0 0 0 0 1 1

Total # of neighbors = 199
Ave neighs/atom = 1.99
Neighbor list builds = 334
Dangerous builds = 0

fix_modify      20 move * none
Fix_modify move:
  turned off motion for 0 surfs
run             5000
Generated 0 of 1 mixed pair_coeff terms from geometric mixing rule
Per MPI rank memory allocation (min/avg/max) = 16.18 | 16.25 | 16.31 Mbytes
   Step        Atoms         Temp           c_1            c_2           Press     
     10000         100   0.34179059     0.34179059     0.17072973     0.0053914621 
     10100         100   0.11258374     0.11258374     0.065906278    0.0080342703 
     10200         100   0.058456953    0.058456953    0.042516673    0.0011652786 
     10300         100   0.040597469    0.040597469    0.030413175    0.0013207298 
     10400         100   0.035711317    0.035711317    0.0273155      0.00056428648
     10500         100   0.032612961    0.032612961    0.024961741    0.00048497115
     10600         100   0.029919719    0.029919719    0.022722394    0.00050065437
     10700         100   0.025595557    0.025595557    0.019782688    0.000736542  
     10800         100   0.022831212    0.022831212    0.017918855    0.00028253625
     10900         100   0.020280534    0.020280534    0.016002625    0.00024258129
     11000         100   0.018515665    0.018515665    0.014519532    0.00020984944
     11100         100   0.015786844    0.015786844    0.01233538     0.00050661614
     11200         100   0.012202528    0.012202528    0.0095875345   0.00050809766
     11300         100   0.010690933    0.010690933    0.0083794762   0.00033953241
     11400         100   0.0094406826   0.0094406826   0.0074659916   0.00011682845
     11500         100   0.0091623311   0.0091623311   0.0072325089   0.00011338385
     11600         100   0.0083289266   0.0083289266   0.0066221872   0.0002101637 
     11700         100   0.0076844284   0.0076844284   0.0060909893   0.00027874933
     11800         100   0.0071349612   0.0071349612   0.0056781588   0.00019711834
     11900         100   0.0065855878   0.0065855878   0.005253316    0.00016946833
     12000         100   0.006143272    0.006143272    0.0049327429   8.9641038e-05
     12100         100   0.0055529934   0.0055529934   0.0044761132   0.00018477864
     12200         100   0.0049561376   0.0049561376   0.0039969269   6.9368286e-05
     12300         100   0.0047508391   0.0047508391   0.0038430766   0.00029868493
     12400         100   0.0043287455   0.0043287455   0.003526189    5.8779478e-05
     12500         100   0.0040140251   0.0040140251   0.0033115783   4.9403916e-05
     12600         100   0.0038333892   0.0038333892   0.0031490858   4.8552655e-05
     12700         100   0.0036812354   0.0036812354   0.0030368309   4.9099029e-05
     12800         100   0.0034862793   0.0034862793   0.002888314    4.3607371e-05
     12900         100   0.0031541318   0.0031541318   0.0025979094   9.3377603e-05
     13000         100   0.0027319293   0.0027319293   0.0022741281   7.0274722e-05
     13100         100   0.0025769484   0.0025769484   0.0021666649   7.9121761e-05
     13200         100   0.0023919179   0.0023919179   0.0020336002   9.371165e-05 
     13300         100   0.0022832093   0.0022832093   0.0019463722   3.0232355e-05
     13400         100   0.0021357966   0.0021357966   0.0018302932   2.6430483e-05
     13500         100   0.0020800571   0.0020800571   0.0017827121   3.1903359e-05
     13600         100   0.0020050076   0.0020050076   0.0017064441   2.4811969e-05
     13700         100   0.0018483458   0.0018483458   0.0015782439   2.2873279e-05
     13800         100   0.0017553714   0.0017553714   0.00147564     2.1920894e-05
     13900         100   0.0016783104   0.0016783104   0.0014182737   8.1745567e-05
     14000         100   0.0015481646   0.0015481646   0.0013070436   5.606416e-05 
     14100         100   0.0014092048   0.0014092048   0.0011941095   0.00030831681
     14200         100   0.0012793407   0.0012793407   0.0010815359   1.5390851e-05
     14300         100   0.0011783515   0.0011783515   0.00099679833  9.446742e-05 
     14400         100   0.0011324487   0.0011324487   0.00096349104  1.4014053e-05
     14500         100   0.0011308765   0.0011308765   0.00096114907  1.3994597e-05
     14600         100   0.001018128    0.001018128    0.00087474654  7.7877898e-05
     14700         100   0.00093591449  0.00093591449  0.00080984859  1.1806278e-05
     14800         100   0.0009098584   0.0009098584   0.00078567598  1.1430834e-05
     14900         100   0.00079504657  0.00079504657  0.00070047553  4.0475432e-06
     15000         100   0.00076433962  0.00076433962  0.00067619587  9.5036103e-06
Loop time of 0.104185 on 4 procs for 5000 steps with 100 atoms

Performance: 20732253.698 tau/day, 47991.328 timesteps/s, 4.799 Matom-step/s
98.7% CPU use with 4 MPI tasks x 1 OpenMP threads

MPI task timing breakdown:
Section |  min time  |  avg time  |  max time  |%varavg| %total
---------------------------------------------------------------
Pair    | 0.00017059 | 0.0027867  | 0.0054281  |   5.0 |  2.67
Neigh   | 0.00045708 | 0.0006592  | 0.00087953 |   0.0 |  0.63
Comm    | 0.0013249  | 0.0054711  | 0.0099408  |   5.6 |  5.25
Output  | 0.00038175 | 0.00093379 | 0.0013792  |   0.0 |  0.90
Modify  | 0.00087137 | 0.040791   | 0.083707   |  19.8 | 39.15
Other   |            | 0.05354    |            |       | 51.39

Nlocal:             25 ave          53 max           0 min
Histogram: 2 0 0 0 0 0 0 0 1 1
Nghost:           3.75 ave           9 max           0 min
Histogram: 2 0 0 0 0 0 1 0 0 1
Neighs:          40.75 ave          91 max           0 min
Histogram: 2 0 0 0 0 0 0 1 0 1

Total # of neighbors = 163
Ave neighs/atom = 1.63
Neighbor list builds = 81
Dangerous builds = 0

fix_modify      20 move * rotate 0 0 0 1 1 1 25
Fix_modify move:
  turned on motion for 24 surfs
run             5000
Generated 0 of 1 mixed pair_coeff terms from geometric mixing rule
Per MPI rank memory allocation (min/avg/max) = 16.19 | 16.25 | 16.31 Mbytes
   Step        Atoms         Temp           c_1            c_2           Press     
     15000         100   0.00076433962  0.00076433962  0.00067619587  9.5611478e-06
     15100         100   0.16464277     0.16464277     0.097929491    0.0026420496 
     15200         100   0.19039656     0.19039656     0.11469784     0.0032171117 
     15300         100   0.21784484     0.21784484     0.13028883     0.0049688536 
     15400         100   0.22875146     0.22875146     0.13560824     0.0042963065 
     15500         100   0.22515938     0.22515938     0.1314857      0.0062169489 
     15600         100   0.23439311     0.23439311     0.13625133     0.006494741  
     15700         100   0.26407563     0.26407563     0.14667272     0.009665708  
     15800         100   0.27070187     0.27070187     0.14624963     0.020520931  
     15900         100   0.2958869      0.2958869      0.15292212     0.013098217  
     16000         100   0.30903118     0.30903118     0.15838605     0.01516111   
     16100         100   0.31329518     0.31329518     0.15984508     0.008280908  
     16200         100   0.28022216     0.28022216     0.14361042     0.0096825581 
     16300         100   0.31627512     0.31627512     0.1610849      0.027479251  
     16400         100   0.31416138     0.31416138     0.1593586      0.011312747  
     16500         100   0.30576177     0.30576177     0.15507656     0.019393977  
     16600         100   0.31298786     0.31298786     0.15907376     0.0096373844 
     16700         100   0.32302805     0.32302805     0.16387926     0.010965459  
     16800         100   0.3097061      0.3097061      0.15784736     0.011506507  
     16900         100   0.27426473     0.27426473     0.14073603     0.01558764   
     17000         100   0.25583219     0.25583219     0.13281771     0.012880737  
     17100         100   0.26447725     0.26447725     0.13792314     0.0096637334 
     17200         100   0.27929157     0.27929157     0.14733888     0.007565591  
     17300         100   0.33100726     0.33100726     0.17610301     0.0060208245 
     17400         100   0.38723619     0.38723619     0.20616341     0.0050437904 
     17500         100   0.45041267     0.45041267     0.24241907     0.0099709885 
     17600         100   0.54684981     0.54684981     0.29281986     0.0086019399 
     17700         100   0.5800078      0.5800078      0.31028566     0.015998657  
     17800         100   0.58346971     0.58346971     0.31521251     0.015615694  
     17900         100   0.55443027     0.55443027     0.30414525     0.018592266  
     18000         100   0.49275984     0.49275984     0.27631124     0.011934192  
     18100         100   0.48191128     0.48191128     0.27260259     0.0078984581 
     18200         100   0.45612437     0.45612437     0.26095137     0.0089018792 
     18300         100   0.3687363      0.3687363      0.22274401     0.0058277264 
     18400         100   0.36097758     0.36097758     0.22104071     0.0070845698 
     18500         100   0.34362919     0.34362919     0.21035334     0.0063051984 
     18600         100   0.28988247     0.28988247     0.18616387     0.007139569  
     18700         100   0.28180693     0.28180693     0.18541781     0.0045680224 
     18800         100   0.29073154     0.29073154     0.19394615     0.0049768951 
     18900         100   0.31045187     0.31045187     0.20622266     0.0054407374 
     19000         100   0.32097604     0.32097604     0.2074693      0.012298742  
     19100         100   0.33280381     0.33280381     0.21390241     0.015644256  
     19200         100   0.30959455     0.30959455     0.19740039     0.0067156683 
     19300         100   0.31276082     0.31276082     0.19426446     0.015762398  
     19400         100   0.32095262     0.32095262     0.19570577     0.016718214  
     19500         100   0.35836069     0.35836069     0.20905783     0.0091750143 
     19600         100   0.33711071     0.33711071     0.19387514     0.014560332  
     19700         100   0.34399284     0.34399284     0.19152167     0.010011692  
     19800         100   0.34013615     0.34013615     0.18439918     0.017855088  
     19900         100   0.33837223     0.33837223     0.18283161     0.0081027868 
     20000         100   0.35320607     0.35320607     0.19046711     0.012696238  
Loop time of 0.129345 on 4 procs for 5000 steps with 100 atoms

Performance: 16699556.514 tau/day, 38656.381 timesteps/s, 3.866 Matom-step/s
97.8% CPU use with 4 MPI tasks x 1 OpenMP threads

MPI task timing breakdown:
Section |  min time  |  avg time  |  max time  |%varavg| %total
---------------------------------------------------------------
Pair    | 0.00065139 | 0.0063913  | 0.012586   |   6.9 |  4.94
Neigh   | 0.0020011  | 0.0030069  | 0.0041554  |   1.7 |  2.32
Comm    | 0.019633   | 0.024438   | 0.028467   |   2.1 | 18.89
Output  | 0.00053565 | 0.00094757 | 0.0012904  |   0.0 |  0.73
Modify  | 0.016288   | 0.045126   | 0.076208   |  13.2 | 34.89
Other   |            | 0.04943    |            |       | 38.22

Nlocal:             25 ave          68 max           1 min
Histogram: 2 0 0 0 1 0 0 0 0 1
Nghost:            6.5 ave          14 max           0 min
Histogram: 2 0 0 0 0 0 0 1 0 1
Neighs:          57.75 ave         159 max           0 min
Histogram: 2 0 0 0 1 0 0 0 0 1

Total # of neighbors = 231
Ave neighs/atom = 2.31
Neighbor list builds = 418
Dangerous builds = 0

fix_modify      20 move * none
Fix_modify move:
  turned off motion for 0 surfs
run             5000
Generated 0 of 1 mixed pair_coeff terms from geometric mixing rule
Per MPI rank memory allocation (min/avg/max) = 16.31 | 16.31 | 16.31 Mbytes
   Step        Atoms         Temp           c_1            c_2           Press     
     20000         100   0.35320607     0.35320607     0.19046711     0.011988856  
     20100         100   0.13536827     0.13536827     0.080722998    0.0031638415 
     20200         100   0.11925985     0.11925985     0.070878164    0.0030898496 
     20300         100   0.13374066     0.13374066     0.076620555    0.0056193416 
     20400         100   0.11373917     0.11373917     0.066229003    0.0043649337 
     20500         100   0.10584011     0.10584011     0.06026937     0.0033994452 
     20600         100   0.075251149    0.075251149    0.045138608    0.0021772131 
     20700         100   0.067215896    0.067215896    0.041113636    0.0029911624 
     20800         100   0.052937369    0.052937369    0.033911701    0.0019009752 
     20900         100   0.04138255     0.04138255     0.027588493    0.0024290499 
     21000         100   0.041856889    0.041856889    0.027551792    0.0023874373 
     21100         100   0.040106831    0.040106831    0.02667361     0.0013601523 
     21200         100   0.039180659    0.039180659    0.026576203    0.0025373248 
     21300         100   0.038307684    0.038307684    0.026181935    0.0018471222 
     21400         100   0.034446118    0.034446118    0.023780653    0.0014904815 
     21500         100   0.029446386    0.029446386    0.021376185    0.0012315814 
     21600         100   0.03265809     0.03265809     0.022752406    0.0020420544 
     21700         100   0.026947974    0.026947974    0.019593998    0.0016312217 
     21800         100   0.028965371    0.028965371    0.020122259    0.0008835531 
     21900         100   0.020138544    0.020138544    0.014844482    0.0011872516 
     22000         100   0.019404532    0.019404532    0.014439441    0.0010859275 
     22100         100   0.018834649    0.018834649    0.013860992    0.00090856763
     22200         100   0.018894176    0.018894176    0.013928209    0.00086976556
     22300         100   0.017097293    0.017097293    0.012594661    0.00078029474
     22400         100   0.019158447    0.019158447    0.01366112     0.00068872355
     22500         100   0.015476416    0.015476416    0.011252629    0.00074404328
     22600         100   0.014942127    0.014942127    0.010952491    0.00063478016
     22700         100   0.015617229    0.015617229    0.011195872    0.0011608421 
     22800         100   0.0150682      0.0150682      0.010752674    0.00070234648
     22900         100   0.011512427    0.011512427    0.008314515    0.00045241871
     23000         100   0.010280893    0.010280893    0.0074641232   0.00034725999
     23100         100   0.0086670239   0.0086670239   0.0063560489   0.00055660285
     23200         100   0.008644519    0.008644519    0.0063128757   0.00029689649
     23300         100   0.0086592701   0.0086592701   0.0062767316   0.00025282561
     23400         100   0.0088111048   0.0088111048   0.0062153236   0.00027031975
     23500         100   0.0083145784   0.0083145784   0.0059749882   0.00021094004
     23600         100   0.0075935919   0.0075935919   0.0054986829   0.00022390189
     23700         100   0.0066247184   0.0066247184   0.0048700034   0.00016984175
     23800         100   0.0057489781   0.0057489781   0.0042375831   0.00015372188
     23900         100   0.0055155876   0.0055155876   0.0040500868   0.00016011822
     24000         100   0.0053253699   0.0053253699   0.0039171979   0.00015652342
     24100         100   0.0053778129   0.0053778129   0.0038769697   0.00029370075
     24200         100   0.0048134003   0.0048134003   0.0035316828   0.00011115271
     24300         100   0.0041081446   0.0041081446   0.0030740207   8.501173e-05 
     24400         100   0.0038764023   0.0038764023   0.0029161105   0.00014829495
     24500         100   0.003327911    0.003327911    0.0025092628   6.0040368e-05
     24600         100   0.0031231575   0.0031231575   0.0023703996   8.8074012e-05
     24700         100   0.0028605778   0.0028605778   0.0021765436   0.00024628881
     24800         100   0.0029118807   0.0029118807   0.0022007859   7.168414e-05 
     24900         100   0.0025747602   0.0025747602   0.001952522   -1.6518313e-05
     25000         100   0.0023422523   0.0023422523   0.0017735664   0.00016033234
Loop time of 0.103782 on 4 procs for 5000 steps with 100 atoms

Performance: 20812955.086 tau/day, 48178.137 timesteps/s, 4.818 Matom-step/s
98.5% CPU use with 4 MPI tasks x 1 OpenMP threads

MPI task timing breakdown:
Section |  min time  |  avg time  |  max time  |%varavg| %total
---------------------------------------------------------------
Pair    | 0.00017507 | 0.0054236  | 0.012461   |   7.3 |  5.23
Neigh   | 0.0008555  | 0.0013187  | 0.0019756  |   1.3 |  1.27
Comm    | 0.0026789  | 0.0084523  | 0.015294   |   5.4 |  8.14
Output  | 0.00043372 | 0.00090667 | 0.0012944  |   0.0 |  0.87
Modify  | 0.0014225  | 0.036278   | 0.072738   |  18.3 | 34.96
Other   |            | 0.0514     |            |       | 49.53

Nlocal:             25 ave          52 max           0 min
Histogram: 2 0 0 0 0 0 0 0 0 2
Nghost:           4.75 ave          11 max           0 min
Histogram: 2 0 0 0 0 0 0 1 0 1
Neighs:          36.25 ave          87 max           0 min
Histogram: 2 0 0 0 0 0 1 0 0 1

Total # of neighbors = 145
Ave neighs/atom = 1.45
Neighbor list builds = 178
Dangerous builds = 0
Total wall time: 0:00:00
