LAMMPS (4 Jul 2026 - Development - patch_4Jul2026-197-g34022a802c)
OMP_NUM_THREADS environment is not set. Defaulting to 1 thread.
  using 1 OpenMP thread(s) per MPI task
# pouring spheres into box made of triangles

units           lj
atom_style      sphere
boundary        f f f
dimension       3
comm_modify     vel yes

region          box block -10 10 -10 10 -10 10 units box
create_box      2 box   # simply for dump_modify to color lines = green
Created orthogonal box = (-10 -10 -10) to (10 10 10)
  1 by 1 by 1 MPI processor grid

pair_style      granular
pair_coeff      * * hooke 4000.0 100.0                     tangential linear_history 1000.0 1.0 0.5                     damping mass_velocity

neighbor        0.3 bin
neigh_modify    delay 0 every 1 check yes

fix             20 all surface/global input stl 2 1 surf.tri.stl                 model * * granular hooke 4000.0 100.0                     tangential linear_history 1000.0 1.0 0.5                     damping mass_velocity
Reading STL object STL version of surf.tri with 4 triangles from file surf.tri.stl
Fix surface/global triangle creation:
  4 tris
  8 tri edges
  5 tri corner points
  4 edge connections
  2 corner point connections
  4 free edges
  0 free corner points
  8.48528137423857 min edge length
  12 max edge length
  36 min tri area
  36 max tri area

fix             2 all nve/sphere
fix             3 all gravity 1.0 vector 0 0 -1

region          slab block -2 2 -2 2 -2 2 units box
fix             ins all pour 100 1 4767548 vol 0.4 10                 diam one 1.0 region slab ignore

timestep        0.005

compute         1 all temp
compute_modify  1 dynamic/dof yes

compute         2 all temp/sphere
compute_modify  2 dynamic/dof yes

thermo          100
thermo_style    custom step atoms temp c_1 c_2 press
thermo_modify   lost ignore
compute_modify  thermo_temp dynamic/dof yes

#dump            viz all image 100 tribox.global-*.png type diameter #                   size 800 800 zoom 1.5 shiny 0.2 fsaa yes #                   ssao yes 1231541 0.4 view 80 20 box yes 0.025 #                   region slab forestgreen frame 0.2 fix 20 const 1 0
#dump_modify     viz pad 6 backcolor black backcolor2 white boxcolor midnightblue #                    acolor 1 slategray fcolor 20 yellow lights 0.15 0.9 0.45 0.9

run             5000
Generated 0 of 1 mixed pair_coeff terms from geometric mixing rule
Particle insertion: 48 every 566 steps, 100 by step 1133
Neighbor list info ...
  update: every = 1 steps, delay = 0 steps, check = yes
  max neighbors/atom: 2000, page size: 100000
  master list distance cutoff = 1.3
  ghost atom cutoff = 1.3
  binsize = 0.65, bins = 31 31 31
  1 neighbor lists, perpetual/occasional/extra = 1 0 0
  (1) pair granular, perpetual
      attributes: half, newton on, size, history
      pair build: half/size/bin/atomonly/newton
      stencil: half/bin/3d
      bin: standard
Per MPI rank memory allocation (min/avg/max) = 11.65 | 11.65 | 11.65 Mbytes
   Step        Atoms         Temp           c_1            c_2           Press     
         0           0   0              0              0              0            
WARNING: Fewer insertions than requested (src/GRANULAR/fix_pour.cpp:691)
       100          30   1.8475594      1.8475594      0.94247903     0.0066974027 
       200          29   1.1509218      1.1509218      0.56834679     0.0040282263 
       300          29   1.4027892      1.4027892      0.69231081     0.0049097623 
       400          28   1.3691535      1.3691535      0.67323627     0.0046219869 
       500          24   1.07938        1.07938        0.52978729     0.0031045374 
WARNING: Fewer insertions than requested (src/GRANULAR/fix_pour.cpp:691)
       600          36   0.88995271     0.88995271     0.4601509      0.0038644629 
       700          35   0.79950836     0.79950836     0.41503611     0.0040459316 
       800          33   0.39502887     0.39502887     0.20346738     0.0016529207 
       900          33   0.48665494     0.48665494     0.24705098     0.0020387378 
      1000          30   0.16791326     0.16791326     0.090580275    0.0006917023 
      1100          29   0.039136829    0.039136829    0.026665126    0.00021024035
WARNING: Fewer insertions than requested (src/GRANULAR/fix_pour.cpp:691)
      1200          45   0.25428743     0.25428743     0.13053041     0.001473183  
      1300          45   0.31051587     0.31051587     0.15898196     0.0020156289 
      1400          45   0.39308686     0.39308686     0.19926968     0.0021960807 
      1500          45   0.48836097     0.48836097     0.24608137     0.0026988677 
      1600          41   0.21843424     0.21843424     0.11311316     0.0011207537 
WARNING: Fewer insertions than requested (src/GRANULAR/fix_pour.cpp:691)
      1700          40   0.029667847    0.029667847    0.019750794    0.00017739989
      1800          40   0.042291342    0.042291342    0.026088587    0.00030119177
      1900          40   0.054154251    0.054154251    0.032244278    0.00030999397
      2000          40   0.072543311    0.072543311    0.041205737    0.00037287087
      2100          40   0.1017631      0.1017631      0.055615494    0.00049609512
      2200          40   0.12976692     0.12976692     0.069523265    0.00063261373
WARNING: Fewer insertions than requested (src/GRANULAR/fix_pour.cpp:691)
      2300          61   0.19169096     0.19169096     0.098098379    0.0016601222 
      2400          61   0.25837979     0.25837979     0.13156137     0.0019269162 
      2500          60   0.27251524     0.27251524     0.13870852     0.0021030041 
      2600          60   0.35561382     0.35561382     0.18013474     0.0028281069 
      2700          60   0.45359626     0.45359626     0.22890477     0.0035302936 
      2800          56   0.25399267     0.25399267     0.12989831     0.0020144386 
WARNING: Fewer insertions than requested (src/GRANULAR/fix_pour.cpp:691)
      2900          56   0.25014123     0.25014123     0.12762877     0.0017800598 
      3000          54   0.17029613     0.17029613     0.088046242    0.0011971436 
      3100          52   0.05527795     0.05527795     0.031193153    0.00042688153
      3200          52   0.075778737    0.075778737    0.041310334    0.00092139794
      3300          52   0.10330464     0.10330464     0.05471926     0.00068184422
WARNING: Fewer insertions than requested (src/GRANULAR/fix_pour.cpp:691)
      3400          58   0.19169224     0.19169224     0.098347535    0.0013916487 
      3500          57   0.18127358     0.18127358     0.093246438    0.0013127996 
      3600          57   0.24823672     0.24823672     0.1265732      0.0017892987 
      3700          57   0.33151436     0.33151436     0.16815025     0.002424317  
      3800          56   0.36275532     0.36275532     0.18354251     0.0025288377 
      3900          53   0.23675295     0.23675295     0.12095642     0.001559508  
      4000          58   0.25051635     0.25051635     0.12734244     0.001784929  
      4100          58   0.32262853     0.32262853     0.16324747     0.0022987283 
      4200          58   0.40879865     0.40879865     0.20610914     0.0029227211 
      4300          56   0.32061685     0.32061685     0.16222582     0.0022500981 
      4400          55   0.32898584     0.32898584     0.16605613     0.0022206544 
      4500          51   0.092813431    0.092813431    0.04907696     0.00058008395
      4600          51   0.12452706     0.12452706     0.065105783    0.00077829415
      4700          50   0.084586783    0.084586783    0.045672737    0.00051809404
      4800          50   0.13090722     0.13090722     0.068866481    0.00080180675
      4900          49   0.1253407      0.1253407      0.066038783    0.00075204418
      5000          49   0.19948786     0.19948786     0.10281336     0.0011969272 
Loop time of 0.0742756 on 1 procs for 5000 steps with 49 atoms

Performance: 29080886.466 tau/day, 67316.867 timesteps/s, 3.299 Matom-step/s
99.0% CPU use with 1 MPI tasks x 1 OpenMP threads

MPI task timing breakdown:
Section |  min time  |  avg time  |  max time  |%varavg| %total
---------------------------------------------------------------
Pair    | 0.0033647  | 0.0033647  | 0.0033647  |   0.0 |  4.53
Neigh   | 0.0099358  | 0.0099358  | 0.0099358  |   0.0 | 13.38
Comm    | 0.00051788 | 0.00051788 | 0.00051788 |   0.0 |  0.70
Output  | 0.00024859 | 0.00024859 | 0.00024859 |   0.0 |  0.33
Modify  | 0.058351   | 0.058351   | 0.058351   |   0.0 | 78.56
Other   |            | 0.001857   |            |       |  2.50

Nlocal:             49 ave          49 max          49 min
Histogram: 1 0 0 0 0 0 0 0 0 0
Nghost:              0 ave           0 max           0 min
Histogram: 1 0 0 0 0 0 0 0 0 0
Neighs:             19 ave          19 max          19 min
Histogram: 1 0 0 0 0 0 0 0 0 0

Total # of neighbors = 19
Ave neighs/atom = 0.3877551
Neighbor list builds = 702
Dangerous builds = 0

fix_modify      20 move * rotate 0 0 0 0 0 1 25
Fix_modify move:
  turned on motion for 4 surfs
run             5000
Generated 0 of 1 mixed pair_coeff terms from geometric mixing rule
Per MPI rank memory allocation (min/avg/max) = 16.4 | 16.4 | 16.4 Mbytes
   Step        Atoms         Temp           c_1            c_2           Press     
      5000          49   0.19948786     0.19948786     0.10281336     0.0011969272 
      5100          49   0.30148572     0.30148572     0.16102025     0.0018096507 
      5200          49   0.42699945     0.42699945     0.23148007     0.0025619967 
      5300          49   0.57184745     0.57184745     0.30492549     0.0034310847 
      5400          46   0.52475963     0.52475963     0.28347167     0.0029517729 
      5500          44   0.52843721     0.52843721     0.28671928     0.00284035   
      5600          39   0.25585644     0.25585644     0.15486945     0.0012153181 
      5700          38   0.24961307     0.24961307     0.15331249     0.0011544604 
      5800          38   0.34000989     0.34000989     0.19911023     0.0015725457 
      5900          37   0.34157486     0.34157486     0.20147355     0.0015370869 
      6000          36   0.36120111     0.36120111     0.21257524     0.0015802548 
      6100          36   0.47746723     0.47746723     0.27064109     0.0020889191 
      6200          34   0.40214897     0.40214897     0.23229273     0.0016588645 
      6300          32   0.26945644     0.26945644     0.16486027     0.0010441437 
      6400          31   0.25143408     0.25143408     0.1559678      0.00094287782
      6500          31   0.35744319     0.35744319     0.20869155     0.001340412  
      6600          31   0.48672335     0.48672335     0.2728624      0.0018252126 
      6700          29   0.40260553     0.40260553     0.23019062     0.0014091194 
      6800          28   0.40465715     0.40465715     0.23039588     0.0013657179 
      6900          27   0.39795179     0.39795179     0.22640732     0.0012933433 
      7000          26   0.35850723     0.35850723     0.20597373     0.0011203351 
      7100          25   0.28447698     0.28447698     0.16908563     0.00085343093
      7200          24   0.17319164     0.17319164     0.11394026     0.00049792595
      7300          23   0.022906238    0.022906238    0.039850203    6.2992155e-05
      7400          23   0.039808088    0.039808088    0.04872232     0.00010947224
      7500          23   0.064638189    0.064638189    0.061459864    0.00017775502
      7600          23   0.097401606    0.097401606    0.07807016     0.00026785442
      7700          23   0.13809834     0.13809834     0.098552443    0.00037977043
      7800          23   0.18672838     0.18672838     0.12290596     0.00051350305
      7900          23   0.24345751     0.24345751     0.15131863     0.00066950816
      8000          23   0.30878818     0.30878818     0.18431937     0.0008491675 
      8100          22   0.18665618     0.18665618     0.12404169     0.00048997248
      8200          21   0.018051922    0.018051922    0.040298083    4.5129805e-05
      8300          21   0.027669023    0.027669023    0.045483478    6.9172558e-05
      8400          21   0.04164356     0.04164356     0.05275839     0.0001041089 
      8500          21   0.060504214    0.060504214    0.062810656    0.00015126053
      8600          21   0.085637623    0.085637623    0.076323183    0.00021409406
      8700          21   0.11940684     0.11940684     0.093228617    0.0002985171 
      8800          21   0.16189608     0.16189608     0.11434665     0.00040474019
      8900          21   0.21311196     0.21311196     0.13970812     0.00053277989
      9000          20   0.067151208    0.067151208    0.065974172    0.00015948412
      9100          20   0.092567404    0.092567404    0.078724095    0.00021984758
      9200          20   0.12257657     0.12257657     0.093695985    0.00029111936
      9300          20   0.1572005      0.1572005      0.1108745      0.00037335119
      9400          20   0.19640064     0.19640064     0.13028567     0.00046645153
      9500          19   0.008432985    0.008432985    0.036501551    1.8974216e-05
      9600          19   0.010164725    0.010164725    0.038842579    2.2857689e-05
      9700          19   0.015934568    0.015934568    0.042081041    3.5852779e-05
      9800          19   0.026642543    0.026642543    0.047487076    5.9916732e-05
      9900          19   0.042166057    0.042166057    0.055267018    9.4869969e-05
     10000          19   0.062534705    0.062534705    0.065377899    0.00014303701
Loop time of 0.0458985 on 1 procs for 5000 steps with 19 atoms

Performance: 47060317.361 tau/day, 108935.920 timesteps/s, 2.070 Matom-step/s
99.7% CPU use with 1 MPI tasks x 1 OpenMP threads

MPI task timing breakdown:
Section |  min time  |  avg time  |  max time  |%varavg| %total
---------------------------------------------------------------
Pair    | 0.00074912 | 0.00074912 | 0.00074912 |   0.0 |  1.63
Neigh   | 0.0063947  | 0.0063947  | 0.0063947  |   0.0 | 13.93
Comm    | 0.00039996 | 0.00039996 | 0.00039996 |   0.0 |  0.87
Output  | 0.0002055  | 0.0002055  | 0.0002055  |   0.0 |  0.45
Modify  | 0.036776   | 0.036776   | 0.036776   |   0.0 | 80.12
Other   |            | 0.001373   |            |       |  2.99

Nlocal:             19 ave          19 max          19 min
Histogram: 1 0 0 0 0 0 0 0 0 0
Nghost:              0 ave           0 max           0 min
Histogram: 1 0 0 0 0 0 0 0 0 0
Neighs:              7 ave           7 max           7 min
Histogram: 1 0 0 0 0 0 0 0 0 0

Total # of neighbors = 7
Ave neighs/atom = 0.36842105
Neighbor list builds = 544
Dangerous builds = 0

fix_modify      20 move * none
Fix_modify move:
  turned off motion for 0 surfs
run             5000
Generated 0 of 1 mixed pair_coeff terms from geometric mixing rule
Per MPI rank memory allocation (min/avg/max) = 16.4 | 16.4 | 16.4 Mbytes
   Step        Atoms         Temp           c_1            c_2           Press     
     10000          19   0.062534705    0.062534705    0.065377899    0.00014245718
     10100          19   0.080927395    0.080927395    0.049143865    0.00018251327
     10200          19   0.11309577     0.11309577     0.060858345    0.00025446548
     10300          19   0.14801396     0.14801396     0.077842333    0.0003330314 
     10400          19   0.18777366     0.18777366     0.097184892    0.00042249073
     10500          18   0.0029923425   0.0029923425   0.0021149008   6.3587279e-06
     10600          18   0.0029923425   0.0029923425   0.0021149008   6.3587279e-06
     10700          18   0.0029923425   0.0029923425   0.0021149008   6.3587279e-06
     10800          18   0.0029923425   0.0029923425   0.0021149008   6.3587279e-06
     10900          18   0.0029923425   0.0029923425   0.0021149008   6.3587279e-06
     11000          18   0.0029923425   0.0029923425   0.0021149008   6.3587279e-06
     11100          18   0.0029923425   0.0029923425   0.0021149008   6.3587279e-06
     11200          18   0.0029923425   0.0029923425   0.0021149008   6.3587279e-06
     11300          18   0.0029923425   0.0029923425   0.0021149008   6.3587279e-06
     11400          18   0.0029923425   0.0029923425   0.0021149008   6.3587279e-06
     11500          18   0.0029923425   0.0029923425   0.0021149008   6.3587279e-06
     11600          18   0.0029923425   0.0029923425   0.0021149008   6.3587279e-06
     11700          18   0.0029923425   0.0029923425   0.0021149008   6.3587279e-06
     11800          18   0.0029923425   0.0029923425   0.0021149008   6.3587279e-06
     11900          18   0.0029923425   0.0029923425   0.0021149008   6.3587279e-06
     12000          18   0.0029923425   0.0029923425   0.0021149008   6.3587279e-06
     12100          18   0.0029923425   0.0029923425   0.0021149008   6.3587279e-06
     12200          18   0.0029919071   0.0029919071   0.0021154866   6.3578025e-06
     12300          18   0.0029961517   0.0029961517   0.0021202177   6.3668223e-06
     12400          18   0.0030162101   0.0030162101   0.0021369273   6.4094466e-06
     12500          18   0.0030890087   0.0030890087   0.0021922869   6.5641435e-06
     12600          18   0.0033372434   0.0033372434   0.002373186    7.0916423e-06
     12700          18   0.0041441393   0.0041441393   0.0029480098   8.806296e-06 
     12800          18   0.0071359715   0.0071359715   0.0046560956   1.5163939e-05
     12900          18   0.015422429    0.015422429    0.0086809463   3.2772661e-05
     13000          18   0.028842207    0.028842207    0.015199124    6.1289691e-05
     13100          18   0.047403377    0.047403377    0.024215233    0.00010073218
     13200          18   0.071180661    0.071180661    0.035779855    0.0001512589 
     13300          18   0.1003225      0.1003225      0.049995113    0.0002131853 
     13400          18   0.13529314     0.13529314     0.067178378    0.00028749792
     13500          18   0.17816951     0.17816951     0.0881947      0.00037861022
     13600          18   0.23152795     0.23152795     0.11411166     0.0004919969 
     13700          17   0.033270471    0.033270471    0.017246642    6.6540943e-05
     13800          17   0.053888685    0.053888685    0.027243352    0.00010777737
     13900          17   0.08003792     0.08003792     0.039936862    0.00016007584
     14000          17   0.11201226     0.11201226     0.055526836    0.00022402451
     14100          17   0.15045141     0.15045141     0.074444405    0.00030090281
     14200          17   0.19847012     0.19847012     0.097821313    0.00039694024
     14300          16   0.022834192    0.022834192    0.012167804    4.281411e-05 
     14400          16   0.0406218      0.0406218      0.020774711    7.6165875e-05
     14500          16   0.064227172    0.064227172    0.032196665    0.00012042595
     14600          16   0.093650308    0.093650308    0.046433667    0.00017559433
     14700          16   0.12889277     0.12889277     0.063486875    0.00024167395
     14800          16   0.17011252     0.17011252     0.083464179    0.00031896098
     14900          16   0.21765197     0.21765197     0.10659705     0.00040809744
     15000          15   0.0059103897   0.0059103897   0.0039554158   1.0343182e-05
Loop time of 0.0282885 on 1 procs for 5000 steps with 15 atoms

Performance: 76356178.525 tau/day, 176750.413 timesteps/s, 2.651 Matom-step/s
99.2% CPU use with 1 MPI tasks x 1 OpenMP threads

MPI task timing breakdown:
Section |  min time  |  avg time  |  max time  |%varavg| %total
---------------------------------------------------------------
Pair    | 0.00058449 | 0.00058449 | 0.00058449 |   0.0 |  2.07
Neigh   | 0.0028481  | 0.0028481  | 0.0028481  |   0.0 | 10.07
Comm    | 0.00035024 | 0.00035024 | 0.00035024 |   0.0 |  1.24
Output  | 0.00018759 | 0.00018759 | 0.00018759 |   0.0 |  0.66
Modify  | 0.023364   | 0.023364   | 0.023364   |   0.0 | 82.59
Other   |            | 0.000954   |            |       |  3.37

Nlocal:             15 ave          15 max          15 min
Histogram: 1 0 0 0 0 0 0 0 0 0
Nghost:              0 ave           0 max           0 min
Histogram: 1 0 0 0 0 0 0 0 0 0
Neighs:              2 ave           2 max           2 min
Histogram: 1 0 0 0 0 0 0 0 0 0

Total # of neighbors = 2
Ave neighs/atom = 0.13333333
Neighbor list builds = 256
Dangerous builds = 0

fix_modify      20 move * rotate 0 0 0 1 1 1 25
Fix_modify move:
  turned on motion for 4 surfs
run             5000
Generated 0 of 1 mixed pair_coeff terms from geometric mixing rule
Per MPI rank memory allocation (min/avg/max) = 16.4 | 16.4 | 16.4 Mbytes
   Step        Atoms         Temp           c_1            c_2           Press     
     15000          15   0.0059103897   0.0059103897   0.0039554158   1.0343182e-05
     15100          15   0.060819732    0.060819732    0.038936839    0.00010643453
     15200          15   0.13364342     0.13364342     0.075140706    0.00023387598
     15300          15   0.22733265     0.22733265     0.12191874     0.00039783213
     15400          15   0.2269776      0.2269776      0.12797615     0.0003972108 
     15500          15   0.33048257     0.33048257     0.18452276     0.0005783445 
     15600          15   0.48636334     0.48636334     0.2667824      0.00085113585
     15700          15   0.70672843     0.70672843     0.37938878     0.0012367747 
     15800          15   1.0018708      1.0018708      0.52668021     0.0017532739 
     15900          14   1.1662108      1.1662108      0.60977402     0.0018950925 
     16000          12   1.2293562      1.2293562      0.64527988     0.0016903648 
     16100          12   1.6961301      1.6961301      0.86942757     0.0023321789 
     16200           9   1.8704019      1.8704019      0.93864544     0.0018704019 
     16300           9   2.4626404      2.4626404      1.2173459      0.0024626404 
     16400           5   2.4398327      2.4398327      1.1482435      0.0012199164 
     16500           5   3.1563711      3.1563711      1.466705       0.0015781855 
     16600           3   3.7302665      3.7302665      1.5281847      0.00093256663
     16700           3   4.699149       4.699149       1.9157377      0.0011747873 
     16800           1   0              0              2.2846008      0            
     16900           1   0              0              2.8921146      0            
     17000           1   0              0              3.5868949      0            
     17100           1   0              0              4.3689417      0            
     17200           1   0              0              5.2382549      0            
     17300           0   0              0              0              0            
     17400           0   0              0              0              0            
     17500           0   0              0              0              0            
     17600           0   0              0              0              0            
     17700           0   0              0              0              0            
     17800           0   0              0              0              0            
     17900           0   0              0              0              0            
     18000           0   0              0              0              0            
     18100           0   0              0              0              0            
     18200           0   0              0              0              0            
     18300           0   0              0              0              0            
     18400           0   0              0              0              0            
     18500           0   0              0              0              0            
     18600           0   0              0              0              0            
     18700           0   0              0              0              0            
     18800           0   0              0              0              0            
     18900           0   0              0              0              0            
     19000           0   0              0              0              0            
     19100           0   0              0              0              0            
     19200           0   0              0              0              0            
     19300           0   0              0              0              0            
     19400           0   0              0              0              0            
     19500           0   0              0              0              0            
     19600           0   0              0              0              0            
     19700           0   0              0              0              0            
     19800           0   0              0              0              0            
     19900           0   0              0              0              0            
     20000           0   0              0              0              0            
Loop time of 0.011206 on 1 procs for 5000 steps with 0 atoms

Performance: 192754415.080 tau/day, 446190.776 timesteps/s, 0.000 atom-step/s
99.2% CPU use with 1 MPI tasks x 1 OpenMP threads

MPI task timing breakdown:
Section |  min time  |  avg time  |  max time  |%varavg| %total
---------------------------------------------------------------
Pair    | 0.00019376 | 0.00019376 | 0.00019376 |   0.0 |  1.73
Neigh   | 0.0047064  | 0.0047064  | 0.0047064  |   0.0 | 42.00
Comm    | 0.00034703 | 0.00034703 | 0.00034703 |   0.0 |  3.10
Output  | 0.00015395 | 0.00015395 | 0.00015395 |   0.0 |  1.37
Modify  | 0.0049849  | 0.0049849  | 0.0049849  |   0.0 | 44.48
Other   |            | 0.00082    |            |       |  7.32

Nlocal:              0 ave           0 max           0 min
Histogram: 1 0 0 0 0 0 0 0 0 0
Nghost:              0 ave           0 max           0 min
Histogram: 1 0 0 0 0 0 0 0 0 0
Neighs:              0 ave           0 max           0 min
Histogram: 1 0 0 0 0 0 0 0 0 0

Total # of neighbors = 0
Neighbor list builds = 452
Dangerous builds = 0

fix_modify      20 move * none
Fix_modify move:
  turned off motion for 0 surfs
run             5000
Generated 0 of 1 mixed pair_coeff terms from geometric mixing rule
Per MPI rank memory allocation (min/avg/max) = 16.4 | 16.4 | 16.4 Mbytes
   Step        Atoms         Temp           c_1            c_2           Press     
     20000           0   0              0              0              0            
     20100           0   0              0              0              0            
     20200           0   0              0              0              0            
     20300           0   0              0              0              0            
     20400           0   0              0              0              0            
     20500           0   0              0              0              0            
     20600           0   0              0              0              0            
     20700           0   0              0              0              0            
     20800           0   0              0              0              0            
     20900           0   0              0              0              0            
     21000           0   0              0              0              0            
     21100           0   0              0              0              0            
     21200           0   0              0              0              0            
     21300           0   0              0              0              0            
     21400           0   0              0              0              0            
     21500           0   0              0              0              0            
     21600           0   0              0              0              0            
     21700           0   0              0              0              0            
     21800           0   0              0              0              0            
     21900           0   0              0              0              0            
     22000           0   0              0              0              0            
     22100           0   0              0              0              0            
     22200           0   0              0              0              0            
     22300           0   0              0              0              0            
     22400           0   0              0              0              0            
     22500           0   0              0              0              0            
     22600           0   0              0              0              0            
     22700           0   0              0              0              0            
     22800           0   0              0              0              0            
     22900           0   0              0              0              0            
     23000           0   0              0              0              0            
     23100           0   0              0              0              0            
     23200           0   0              0              0              0            
     23300           0   0              0              0              0            
     23400           0   0              0              0              0            
     23500           0   0              0              0              0            
     23600           0   0              0              0              0            
     23700           0   0              0              0              0            
     23800           0   0              0              0              0            
     23900           0   0              0              0              0            
     24000           0   0              0              0              0            
     24100           0   0              0              0              0            
     24200           0   0              0              0              0            
     24300           0   0              0              0              0            
     24400           0   0              0              0              0            
     24500           0   0              0              0              0            
     24600           0   0              0              0              0            
     24700           0   0              0              0              0            
     24800           0   0              0              0              0            
     24900           0   0              0              0              0            
     25000           0   0              0              0              0            
Loop time of 0.00127512 on 1 procs for 5000 steps with 0 atoms

Performance: 1693959544.168 tau/day, 3921202.649 timesteps/s, 0.000 atom-step/s
89.1% CPU use with 1 MPI tasks x 1 OpenMP threads

MPI task timing breakdown:
Section |  min time  |  avg time  |  max time  |%varavg| %total
---------------------------------------------------------------
Pair    | 0.00013241 | 0.00013241 | 0.00013241 |   0.0 | 10.38
Neigh   | 0          | 0          | 0          |   0.0 |  0.00
Comm    | 0.00025955 | 0.00025955 | 0.00025955 |   0.0 | 20.36
Output  | 0.00010732 | 0.00010732 | 0.00010732 |   0.0 |  8.42
Modify  | 0.00028958 | 0.00028958 | 0.00028958 |   0.0 | 22.71
Other   |            | 0.0004863  |            |       | 38.13

Nlocal:              0 ave           0 max           0 min
Histogram: 1 0 0 0 0 0 0 0 0 0
Nghost:              0 ave           0 max           0 min
Histogram: 1 0 0 0 0 0 0 0 0 0
Neighs:              0 ave           0 max           0 min
Histogram: 1 0 0 0 0 0 0 0 0 0

Total # of neighbors = 0
Neighbor list builds = 0
Dangerous builds = 0
Total wall time: 0:00:00
