LAMMPS (4 Jul 2026 - Development - patch_4Jul2026-197-g34022a802c)
OMP_NUM_THREADS environment is not set. Defaulting to 1 thread.
  using 1 OpenMP thread(s) per MPI task
# pouring spheres into box made of triangles

units           lj
atom_style      tri
atom_modify     map array
boundary        f f f
dimension       3
comm_modify     vel yes cutoff 12.5

region          box block -10 10 -10 10 -10 10 units box
create_box      2 box
Created orthogonal box = (-10 -10 -10) to (10 10 10)
  1 by 2 by 2 MPI processor grid

molecule        tris surf.tribox
Read molecule template tris:
LAMMPS data file for tri box
  1 molecules
  0 fragments
  0 bodies
  0 atoms with max type 0
  0 bonds with max type 0
  0 angles with max type 0
  0 dihedrals with max type 0
  0 impropers with max type 0
  24 triangles
fix             20 all surface/local input mol tris
Converting molecule file to line/tri particles ...
Fix surface/local triangle creation:
  24 tris
  36 tri edges
  14 tri corner points
  36 edge connections
  84 corner point connections
  0 free edges
  0 free corner points
  8.485281374238568 min edge length
  12.000000000000005 max edge length
  35.999999999999986 min tri area
  36.000000000000036 max tri area

pair_style      hybrid granular surf/granular
pair_coeff      1 1 granular hooke 4000.0 100.0                          tangential linear_history 1000.0 1.0 0.5                          damping mass_velocity
pair_coeff      1 2 surf/granular hooke 4000.0 100.0                          tangential linear_history 1000.0 1.0 0.5                          damping mass_velocity
pair_coeff      2 2 none

group           sphere type 1
0 atoms in group sphere
group           tri type 2
24 atoms in group tri

neighbor        0.3 bin
neigh_modify    delay 0 every 1 check yes

fix             2 sphere nve/sphere
fix             3 sphere gravity 1.0 vector 0 0 -1

region          slab block -2 2 -2 2 -2 2 units box
fix             ins sphere pour 100 1 4767548 vol 0.4 10                 diam one 1.0 region slab ignore

timestep        0.005

compute         1 sphere temp
compute_modify  1 dynamic/dof yes

compute         2 sphere temp/sphere
compute_modify  2 dynamic/dof yes

thermo          100
thermo_style    custom step atoms temp c_1 c_2 press
thermo_modify   lost ignore
compute_modify  thermo_temp dynamic/dof yes

#dump           2 all image 100 tmp.image.*.ppm type type #               zoom 1.4 adiam 1.0 tri type 2 0.2
#dump_modify        2 pad 5

run             5000
Generated 0 of 1 mixed pair_coeff terms from geometric mixing rule
Particle insertion: 48 every 566 steps, 100 by step 1133
Neighbor list info ...
  update: every = 1 steps, delay = 0 steps, check = yes
  max neighbors/atom: 2000, page size: 100000
  master list distance cutoff = 7.1245553
  ghost atom cutoff = 12.5
  binsize = 3.5622777, bins = 6 6 6
  3 neighbor lists, perpetual/occasional/extra = 3 0 0
  (1) pair granular, perpetual, skip from (3)
      attributes: half, newton on, size, history, off2on
      pair build: skip/size/off2on
      stencil: none
      bin: none
  (2) pair surf/granular, perpetual, skip from (3)
      attributes: half, newton on, size, history, onesided, off2on
      pair build: skip/size/off2on/oneside
      stencil: none
      bin: none
  (3) neighbor class addition, perpetual
      attributes: half, newton off, size, history
      pair build: half/size/bin/atomonly/newtoff
      stencil: full/bin/3d
      bin: standard
Per MPI rank memory allocation (min/avg/max) = 19.01 | 19.01 | 19.01 Mbytes
   Step        Atoms         Temp           c_1            c_2           Press     
         0          24   0              0              0              0            
WARNING: Fewer insertions than requested (src/GRANULAR/fix_pour.cpp:691)
       100          54   0.43980579     0.803783       0.39507978     0.0029137134 
       200          54   0.65485258     1.1967995      0.5882574      0.0043383984 
       300          54   0.70118095     1.2814686      0.62987441     0.0046453238 
       400          54   0.45325721     0.82836663     0.40994817     0.0030286739 
       500          54   0.45475589     0.83110558     0.414729       0.0043230409 
WARNING: Fewer insertions than requested (src/GRANULAR/fix_pour.cpp:691)
       600          88   0.36933761     0.51003765     0.26258869     0.0037590791 
       700          88   0.42058223     0.58080404     0.29751792     0.0066900783 
       800          88   0.46104238     0.63667757     0.32644388     0.0051500426 
       900          88   0.41290353     0.57020011     0.29762919     0.0068481023 
      1000          88   0.34695571     0.47912932     0.25178552     0.0041029274 
      1100          88   0.33424829     0.46158097     0.2466537      0.0043754036 
WARNING: Fewer insertions than requested (src/GRANULAR/fix_pour.cpp:691)
      1200         123   0.3614775      0.4500026      0.23713789     0.013930637  
      1300         123   0.34569407     0.43035384     0.22891578     0.0057803716 
      1400         123   0.33079906     0.41181107     0.21811838     0.006524053  
      1500         123   0.28224178     0.35136221     0.18849775     0.0096119827 
      1600         123   0.23235375     0.28925671     0.15860931     0.0067102212 
      1700         124   0.1803208      0.22403493     0.12490011     0.0057362155 
      1800         124   0.10284805     0.12778091     0.07734596     0.003735231  
      1900         124   0.049668733    0.061709638    0.040708353    0.003410499  
      2000         124   0.048709222    0.060517518    0.039202388    0.0026588521 
      2100         124   0.037240441    0.046268426    0.030585185    0.0021088525 
      2200         124   0.03674006     0.045646741    0.029059865    0.001900133  
      2300         124   0.02006775     0.024932659    0.018323087    0.0016376815 
      2400         124   0.016252002    0.020191881    0.014845701    0.0015273696 
      2500         124   0.010497966    0.013042927    0.010128295    0.0018466623 
      2600         124   0.0079863426   0.0099224257   0.007893556    0.0014527508 
      2700         124   0.005815931    0.0072258537   0.0060160462   0.0013548632 
      2800         124   0.0048544972   0.006031345    0.0050936761   0.0012192707 
      2900         124   0.0046938127   0.0058317067   0.004706917    0.001365265  
      3000         124   0.0035790117   0.0044466509   0.0036661748   0.0011591448 
      3100         124   0.0025523544   0.0031711069   0.0028863248   0.0011904257 
      3200         124   0.0027475558   0.0034136299   0.0027904624   0.0021414382 
      3300         124   0.0016628408   0.0020659538   0.001919498    0.001259415  
      3400         124   0.001561145    0.0019396044   0.0018169216   0.0010895891 
      3500         124   0.0014405087   0.0017897229   0.0016776323   0.001132872  
      3600         124   0.0013667124   0.0016980366   0.001591258    0.0012660172 
      3700         124   0.0012009527   0.0014920928   0.0014745057   0.0012363614 
      3800         124   0.0008659374   0.0010758616   0.001164607    0.0011179328 
      3900         124   0.00065752866  0.00081692954  0.00098022387  0.0011362215 
      4000         124   0.00052403397  0.00065107251  0.00084053296  0.0011998252 
      4100         124   0.00049109976  0.00061015424  0.00080134168  0.0010996833 
      4200         124   0.00041451122  0.00051499879  0.00071905171  0.0012717952 
      4300         124   0.00039046113  0.00048511838  0.00068790244  0.0011022036 
      4400         124   0.00038192611  0.00047451425  0.00067557859  0.0011072221 
      4500         124   0.00032245632  0.00040062755  0.00060692002  0.001111647  
      4600         124   0.00031298648  0.00038886199  0.00059139454  0.0010989158 
      4700         124   0.00030278177  0.00037618341  0.00058096925  0.0011057911 
      4800         124   0.00029575189  0.00036744932  0.00055966622  0.0010976769 
      4900         124   0.0002885958   0.00035855842  0.00054798598  0.0011017437 
      5000         124   0.00027823626  0.00034568747  0.00053795898  0.0010968709 
Loop time of 0.123807 on 4 procs for 5000 steps with 124 atoms

Performance: 17446561.062 tau/day, 40385.558 timesteps/s, 5.008 Matom-step/s
96.2% CPU use with 4 MPI tasks x 1 OpenMP threads

MPI task timing breakdown:
Section |  min time  |  avg time  |  max time  |%varavg| %total
---------------------------------------------------------------
Pair    | 0.0018321  | 0.036793   | 0.076581   |  18.3 | 29.72
Neigh   | 0.001164   | 0.0027918  | 0.0043019  |   2.7 |  2.26
Comm    | 0.030372   | 0.073369   | 0.11074    |  13.7 | 59.26
Output  | 0.00032781 | 0.00038137 | 0.00050632 |   0.0 |  0.31
Modify  | 0.0027429  | 0.0047788  | 0.0069912  |   2.6 |  3.86
Other   |            | 0.005692   |            |       |  4.60

Nlocal:             31 ave          54 max           6 min
Histogram: 2 0 0 0 0 0 0 0 0 2
Nghost:             93 ave         118 max          70 min
Histogram: 2 0 0 0 0 0 0 0 0 2
Neighs:              0 ave           0 max           0 min
Histogram: 4 0 0 0 0 0 0 0 0 0

Total # of neighbors = 0
Ave neighs/atom = 0
Neighbor list builds = 271
Dangerous builds = 0

fix             1 tri move rotate 0 0 0 0 0 1 25
run             5000
Generated 0 of 1 mixed pair_coeff terms from geometric mixing rule
Per MPI rank memory allocation (min/avg/max) = 19.99 | 20 | 20.01 Mbytes
   Step        Atoms         Temp           c_1            c_2           Press     
      5000         124   0.00027823626  0.00034568747  0.00053795898  0.0010956002 
      5100         124   5.2264787      0.12336206     0.071944693    0.083208603  
      5200         124   5.2384584      0.13824599     0.082970038    0.083645921  
      5300         124   5.2502978      0.15295551     0.087500807    0.082814536  
      5400         124   5.2625355      0.16815986     0.093142909    0.083399512  
      5500         124   5.2710153      0.17869547     0.097085157    0.082911731  
      5600         124   5.2853596      0.1965172      0.10420868     0.082854925  
      5700         124   5.2900792      0.20238082     0.10596101     0.083213513  
      5800         124   5.3014182      0.21646867     0.11230861     0.083293502  
      5900         124   5.3083216      0.22504566     0.1161102      0.082971289  
      6000         124   5.3155722      0.23405395     0.12026335     0.083645022  
      6100         124   5.3277939      0.24923854     0.12739705     0.083799153  
      6200         124   5.3321566      0.25465889     0.13010832     0.084162692  
      6300         124   5.3363595      0.2598806      0.13226241     0.084633345  
      6400         124   5.341571       0.26635558     0.13519443     0.083848499  
      6500         124   5.3493253      0.27598966     0.13980678     0.084278238  
      6600         124   5.3547616      0.28274384     0.14300822     0.08480397   
      6700         124   5.359134       0.2881763      0.14545131     0.085173978  
      6800         124   5.3650452      0.2955205      0.14914038     0.084683425  
      6900         124   5.3656815      0.29631108     0.1496143      0.084824816  
      7000         124   5.3679949      0.29918522     0.15106334     0.084595649  
      7100         124   5.3713219      0.3033188      0.15296207     0.085739434  
      7200         124   5.3753273      0.30829513     0.15527029     0.084835418  
      7300         124   5.3770052      0.31037989     0.1562421      0.085204381  
      7400         124   5.3783931      0.31210423     0.15705726     0.085529474  
      7500         124   5.3788002      0.31260994     0.15740995     0.085331562  
      7600         124   5.381922       0.31648863     0.15933823     0.085164759  
      7700         124   5.3838499      0.31888389     0.16029849     0.085442792  
      7800         124   5.3848591      0.32013769     0.16097227     0.085925019  
      7900         124   5.3848038      0.32006902     0.16086326     0.085678434  
      8000         124   5.3878789      0.32388957     0.16253318     0.085441909  
      8100         124   5.3884609      0.32461274     0.16292612     0.085736047  
      8200         124   5.3903574      0.32696892     0.16401308     0.086610951  
      8300         124   5.3919261      0.32891791     0.16491795     0.085674913  
      8400         124   5.3910878      0.32787637     0.16433109     0.086360043  
      8500         124   5.393259       0.33057396     0.16561063     0.085930372  
      8600         124   5.3934521      0.33081387     0.16570736     0.086019368  
      8700         124   5.3929005      0.33012861     0.16537622     0.085518914  
      8800         124   5.3934042      0.33075438     0.16570628     0.085807433  
      8900         124   5.3949532      0.33267884     0.1666854      0.085957221  
      9000         124   5.397117       0.33536728     0.1680408      0.085636383  
      9100         124   5.395215       0.33300411     0.16691934     0.086140677  
      9200         124   5.3981771      0.33668434     0.16882088     0.085876379  
      9300         124   5.3972924      0.33558515     0.16832314     0.085567072  
      9400         124   5.397951       0.33640339     0.1686542      0.086064057  
      9500         124   5.3986069      0.33721829     0.16901794     0.086183765  
      9600         124   5.4008993      0.34006645     0.17019553     0.086344639  
      9700         124   5.3999903      0.33893708     0.16954698     0.086561303  
      9800         124   5.402283       0.34178567     0.17103155     0.086564697  
      9900         124   5.4032807      0.34302513     0.17165837     0.08625984   
     10000         124   5.4030862      0.34278358     0.17139341     0.086454651  
Loop time of 0.20089 on 4 procs for 5000 steps with 124 atoms

Performance: 10752162.273 tau/day, 24889.265 timesteps/s, 3.086 Matom-step/s
96.0% CPU use with 4 MPI tasks x 1 OpenMP threads

MPI task timing breakdown:
Section |  min time  |  avg time  |  max time  |%varavg| %total
---------------------------------------------------------------
Pair    | 0.004644   | 0.071954   | 0.14119    |  25.1 | 35.82
Neigh   | 0.0014077  | 0.0044141  | 0.0075633  |   4.5 |  2.20
Comm    | 0.037286   | 0.11146    | 0.18318    |  21.2 | 55.48
Output  | 0.00037849 | 0.00042708 | 0.00055372 |   0.0 |  0.21
Modify  | 0.0041531  | 0.0065898  | 0.0092507  |   2.7 |  3.28
Other   |            | 0.006043   |            |       |  3.01

Nlocal:             31 ave          55 max           8 min
Histogram: 2 0 0 0 0 0 0 0 0 2
Nghost:             93 ave         116 max          69 min
Histogram: 2 0 0 0 0 0 0 0 0 2
Neighs:              0 ave           0 max           0 min
Histogram: 4 0 0 0 0 0 0 0 0 0

Total # of neighbors = 0
Ave neighs/atom = 0
Neighbor list builds = 313
Dangerous builds = 0

unfix           1
set             group tri angmom 0.0 0.0 0.0
Setting atom values ...
  24 settings made for angmom
velocity        tri set 0.0 0.0 0.0
run             5000
Generated 0 of 1 mixed pair_coeff terms from geometric mixing rule
Per MPI rank memory allocation (min/avg/max) = 19.12 | 19.13 | 19.14 Mbytes
   Step        Atoms         Temp           c_1            c_2           Press     
     10000         124   0.27589898     0.34278358     0.17139341     0.0056695573 
     10100         124   0.060551939    0.075231197    0.043987685    0.0050764068 
     10200         124   0.031511095    0.039150148    0.028026017    0.0040310179 
     10300         124   0.026101214    0.032428781    0.023771427    0.0022799128 
     10400         124   0.023820002    0.029594547    0.021894648    0.0015015577 
     10500         124   0.020840603    0.025892871    0.019095704    0.0030335125 
     10600         124   0.017349992    0.021556051    0.015877818    0.0016932143 
     10700         124   0.016809519    0.020884554    0.015299644    0.0013513709 
     10800         124   0.015041707    0.018688182    0.013442904    0.0013700591 
     10900         124   0.012665182    0.015735529    0.011746955    0.0012878917 
     11000         124   0.011269735    0.014001792    0.010646745    0.0012928336 
     11100         124   0.011086568    0.013774221    0.010294764    0.0012493308 
     11200         124   0.0096828117   0.01203016     0.0090238768   0.0013405738 
     11300         124   0.0089627087   0.011135487    0.0083433786   0.0014812098 
     11400         124   0.0076191624   0.009466232    0.0072073421   0.0012068595 
     11500         124   0.0067143078   0.0083420188   0.0063533084   0.0012039478 
     11600         124   0.0058639422   0.0072855039   0.0055714885   0.0012076936 
     11700         124   0.0052962422   0.0065801797   0.0050643182   0.001173341  
     11800         124   0.0049450222   0.0061438155   0.0047670547   0.0012327314 
     11900         124   0.0047537247   0.0059061428   0.0045676422   0.0011486967 
     12000         124   0.004479449    0.005565376    0.0042813237   0.0011449908 
     12100         124   0.0041845697   0.0051990109   0.0040083324   0.001297147  
     12200         124   0.0039838821   0.0049496717   0.0038339379   0.0011584855 
     12300         124   0.0036214172   0.0044993365   0.0034548277   0.0013046435 
     12400         124   0.0033117466   0.0041145943   0.0031917418   0.0011373091 
     12500         124   0.0031552544   0.0039201645   0.0030427692   0.0012808214 
     12600         124   0.0029220905   0.0036304761   0.0028090938   0.0011468087 
     12700         124   0.0027513197   0.0034183063   0.0026522167   0.0011328907 
     12800         124   0.0026449975   0.003286209    0.0025474613   0.0011312121 
     12900         124   0.0024700921   0.0030689023   0.0023762322   0.001178731  
     13000         124   0.0023647347   0.0029380038   0.0022758385   0.0011219626 
     13100         124   0.0021368244   0.0026548424   0.0020582454   0.0012074533 
     13200         124   0.0020570667   0.0025557495   0.0019812551   0.0011402997 
     13300         124   0.0020032422   0.0024888766   0.0019350275   0.001131662  
     13400         124   0.0019613006   0.0024367674   0.001892717    0.0011207002 
     13500         124   0.0019280801   0.0023954934   0.0018578927   0.0011158945 
     13600         124   0.0018818007   0.0023379948   0.0018130708   0.0011194779 
     13700         124   0.0018072596   0.0022453832   0.0017407161   0.0011292288 
     13800         124   0.0017787011   0.0022099013   0.0017146254   0.0011571958 
     13900         124   0.0017388848   0.0021604326   0.0016759008   0.0011258668 
     14000         124   0.0016910968   0.0021010597   0.0016300732   0.0011274544 
     14100         124   0.0016156601   0.0020073353   0.0015519252   0.0011211288 
     14200         124   0.0015163746   0.0018839806   0.0014501284   0.0011330067 
     14300         124   0.0014424626   0.0017921505   0.0013800777   0.0011186503 
     14400         124   0.0014416621   0.0017911559   0.0013795237   0.0011124025 
     14500         124   0.0013899778   0.0017269421   0.0013230997   0.0011142308 
     14600         124   0.0013770287   0.0017108538   0.0013105385   0.001111717  
     14700         124   0.0013465589   0.0016729974   0.001279476    0.0011112485 
     14800         124   0.0012764813   0.0015859313   0.0012162628   0.0011240828 
     14900         124   0.0012509651   0.0015542294   0.0011894062   0.001087523  
     15000         124   0.0011958177   0.0014857129   0.0011382116   0.0011560108 
Loop time of 0.136848 on 4 procs for 5000 steps with 124 atoms

Performance: 15783946.101 tau/day, 36536.912 timesteps/s, 4.531 Matom-step/s
96.1% CPU use with 4 MPI tasks x 1 OpenMP threads

MPI task timing breakdown:
Section |  min time  |  avg time  |  max time  |%varavg| %total
---------------------------------------------------------------
Pair    | 0.00054769 | 0.045349   | 0.093609   |  21.1 | 33.14
Neigh   | 0.00033959 | 0.0010742  | 0.001874   |   2.2 |  0.78
Comm    | 0.031605   | 0.081174   | 0.12688    |  15.9 | 59.32
Output  | 0.00036311 | 0.00042059 | 0.0005389  |   0.0 |  0.31
Modify  | 0.0010369  | 0.0026632  | 0.0044995  |   3.1 |  1.95
Other   |            | 0.006166   |            |       |  4.51

Nlocal:             31 ave          58 max           8 min
Histogram: 2 0 0 0 0 0 0 0 1 1
Nghost:             93 ave         116 max          66 min
Histogram: 1 1 0 0 0 0 0 0 0 2
Neighs:              0 ave           0 max           0 min
Histogram: 4 0 0 0 0 0 0 0 0 0

Total # of neighbors = 0
Ave neighs/atom = 0
Neighbor list builds = 75
Dangerous builds = 0

fix             1 tri move rotate 0 0 0 1 1 1 25
run             5000
Generated 0 of 1 mixed pair_coeff terms from geometric mixing rule
Per MPI rank memory allocation (min/avg/max) = 19.99 | 20 | 20.01 Mbytes
   Step        Atoms         Temp           c_1            c_2           Press     
     15000         124   0.0011958177   0.0014857129   0.0011382116   0.0011570957 
     15100         124   5.2482902      0.1504612      0.088641869    0.083966837  
     15200         124   5.2859724      0.19727847     0.11535291     0.085935174  
     15300         124   5.3052788      0.2212653      0.12730387     0.083717102  
     15400         124   5.3176798      0.23667251     0.13472189     0.089347812  
     15500         124   5.317634       0.23661559     0.13357633     0.08751562   
     15600         124   5.3483434      0.27476978     0.15123814     0.092585416  
     15700         124   5.3612242      0.29077312     0.15628984     0.092374381  
     15800         124   5.3644438      0.29477332     0.1562396      0.095771343  
     15900         124   5.3684719      0.29977789     0.1575518      0.097881558  
     16000         124   5.3676469      0.29875287     0.15462468     0.0913463    
     16100         124   5.3587757      0.28773103     0.14944188     0.09060891   
     16200         124   5.3720388      0.30420952     0.15632243     0.092050588  
     16300         124   5.3921103      0.32914676     0.16827945     0.093842257  
     16400         124   5.3866876      0.32240944     0.16483604     0.094610897  
     16500         124   5.4106093      0.35213044     0.1797539      0.093534259  
     16600         124   5.4083706      0.34934902     0.1776307      0.095538131  
     16700         124   5.3897592      0.32622567     0.16657469     0.087454159  
     16800         124   5.3600398      0.28930162     0.14817936     0.087749212  
     16900         124   5.3458725      0.27169987     0.14066843     0.093616341  
     17000         124   5.3374807      0.26127361     0.1361168      0.088802377  
     17100         124   5.3594296      0.28854347     0.15143449     0.090988642  
     17200         124   5.366855       0.29776895     0.15782633     0.086137978  
     17300         124   5.3970993      0.33534522     0.17877004     0.083195035  
     17400         124   5.428336       0.3741545      0.20206509     0.091416426  
     17500         124   5.4593845      0.41272984     0.22384855     0.085947208  
     17600         124   5.5052851      0.46975795     0.25331569     0.085761451  
     17700         124   5.5429042      0.51649684     0.28067269     0.089848462  
     17800         124   5.5458001      0.52009471     0.28677774     0.09314294   
     17900         124   5.5301235      0.50061769     0.27742826     0.091366453  
     18000         124   5.5300791      0.50056262     0.27841539     0.088360743  
     18100         124   5.5178522      0.4853716      0.27293724     0.089880138  
     18200         124   5.4804856      0.43894635     0.25140902     0.095238241  
     18300         124   5.4447097      0.39449762     0.23015518     0.090943247  
     18400         124   5.4164546      0.35939272     0.21110441     0.08862873   
     18500         124   5.3853983      0.32080761     0.1924836      0.085942982  
     18600         124   5.3595717      0.28872005     0.18028741     0.083306372  
     18700         124   5.3527373      0.28022888     0.18183617     0.083880832  
     18800         124   5.3458632      0.27168831     0.18243338     0.083986373  
     18900         124   5.3647418      0.29514347     0.19944744     0.085308769  
     19000         124   5.3795411      0.31353048     0.20882028     0.088566256  
     19100         124   5.4020744      0.34152646     0.21884792     0.08854239   
     19200         124   5.37029        0.3020367      0.19157987     0.091273358  
     19300         124   5.3762874      0.30948806     0.19082416     0.089563312  
     19400         124   5.3751604      0.30808783     0.18684441     0.088695941  
     19500         124   5.38977        0.32623919     0.19237861     0.087974076  
     19600         124   5.4068154      0.34741678     0.19423748     0.089824205  
     19700         124   5.3983665      0.33691964     0.18634517     0.0859695    
     19800         124   5.3994878      0.33831274     0.1835637      0.093073141  
     19900         124   5.4135063      0.35572966     0.19074094     0.086864251  
     20000         124   5.4011869      0.3404238      0.1810514      0.087627838  
Loop time of 0.167721 on 4 procs for 5000 steps with 124 atoms

Performance: 12878549.805 tau/day, 29811.458 timesteps/s, 3.697 Matom-step/s
95.0% CPU use with 4 MPI tasks x 1 OpenMP threads

MPI task timing breakdown:
Section |  min time  |  avg time  |  max time  |%varavg| %total
---------------------------------------------------------------
Pair    | 0.0088493  | 0.04657    | 0.083209   |  16.5 | 27.77
Neigh   | 0.0023223  | 0.0059664  | 0.01052    |   4.6 |  3.56
Comm    | 0.057024   | 0.10085    | 0.14224    |  12.7 | 60.13
Output  | 0.0003703  | 0.00042034 | 0.00053993 |   0.0 |  0.25
Modify  | 0.0051909  | 0.0079942  | 0.011564   |   2.9 |  4.77
Other   |            | 0.005917   |            |       |  3.53

Nlocal:             31 ave          71 max           8 min
Histogram: 2 0 0 0 1 0 0 0 0 1
Nghost:             93 ave         116 max          53 min
Histogram: 1 0 0 0 0 1 0 0 0 2
Neighs:              0 ave           0 max           0 min
Histogram: 4 0 0 0 0 0 0 0 0 0

Total # of neighbors = 0
Ave neighs/atom = 0
Neighbor list builds = 410
Dangerous builds = 0

unfix           1
set             group tri angmom 0.0 0.0 0.0
Setting atom values ...
  24 settings made for angmom
velocity        tri set 0.0 0.0 0.0
run             5000
Generated 0 of 1 mixed pair_coeff terms from geometric mixing rule
Per MPI rank memory allocation (min/avg/max) = 19.12 | 19.14 | 19.17 Mbytes
   Step        Atoms         Temp           c_1            c_2           Press     
     20000         124   0.27399965     0.3404238      0.1810514     -0.0034221269 
     20100         124   0.090636004    0.11260837     0.066724462    0.0071576158 
     20200         124   0.076316807    0.094817851    0.055754212    0.0090149287 
     20300         124   0.074661434    0.092761175    0.054511692    0.0077464379 
     20400         124   0.090649404    0.11262502     0.06407289     0.0049458678 
     20500         124   0.075715231    0.094070439    0.054243069    0.007728401  
     20600         124   0.049791964    0.061862743    0.036891507    0.0052654388 
     20700         124   0.051740284    0.064283383    0.038857642    0.0036087528 
     20800         124   0.058092396    0.072175402    0.042813472    0.0097071735 
     20900         124   0.057443222    0.071368852    0.043524942    0.004681829  
     21000         124   0.055393186    0.068821837    0.042355165    0.0025150428 
     21100         124   0.043461743    0.053997923    0.035129951    0.0033719202 
     21200         124   0.037436959    0.046512586    0.031250583    0.003595308  
     21300         124   0.033238677    0.041296538    0.029168284    0.0023252722 
     21400         124   0.034108738    0.042377523    0.029405178    0.0029803674 
     21500         124   0.027232198    0.033833943    0.024830449    0.0022834309 
     21600         124   0.027162423    0.033747252    0.024423249    0.0023779682 
     21700         124   0.025082713    0.031163371    0.022551549    0.0021259201 
     21800         124   0.023165871    0.02878184     0.020856136    0.0026135395 
     21900         124   0.020334561    0.025264151    0.018739975    0.0021693706 
     22000         124   0.019807637    0.024609488    0.0183345      0.0020183933 
     22100         124   0.019366884    0.024061886    0.017951216    0.0029602881 
     22200         124   0.019656296    0.024421458    0.01741809     0.0023812357 
     22300         124   0.017270902    0.021457788    0.015972186    0.001829272  
     22400         124   0.015720609    0.019531665    0.014351084    0.002060619  
     22500         124   0.01335803     0.01659634     0.012527083    0.0016687137 
     22600         124   0.013083014    0.016254653    0.01206886     0.0016264809 
     22700         124   0.014941043    0.018563114    0.01332802     0.0015770835 
     22800         124   0.013028395    0.016186794    0.011945784    0.0014295355 
     22900         124   0.01298603     0.016134159    0.011721064    0.0014520776 
     23000         124   0.011638837    0.014460373    0.010603798    0.0015610687 
     23100         124   0.010208731    0.012683574    0.0095984002   0.001503931  
     23200         124   0.010363691    0.0128761      0.0096443709   0.0014675917 
     23300         124   0.0098032868   0.012179841    0.0090933598   0.001512804  
     23400         124   0.0090376588   0.011228606    0.0083334246   0.0014912759 
     23500         124   0.0087719572   0.010898492    0.0079983926   0.0014691688 
     23600         124   0.0086661031   0.010766977    0.0076948128   0.0013702762 
     23700         124   0.0074779066   0.0092907324   0.0067902352   0.0013277849 
     23800         124   0.0067093084   0.0083358074   0.0061668789   0.0013477651 
     23900         124   0.0061485849   0.0076391509   0.0055486572   0.0022537882 
     24000         124   0.0043564155   0.0054125163   0.0040927956   0.0018490599 
     24100         124   0.0043088385   0.0053534055   0.0040204855   0.0014927372 
     24200         124   0.0036306626   0.0045108233   0.0033781338   0.0013214661 
     24300         124   0.0033843241   0.0042047663   0.0030542246   0.0011254575 
     24400         124   0.0027916508   0.0034684146   0.002589524    0.0012304011 
     24500         124   0.0025494497   0.0031674981   0.0023707276   0.0011669332 
     24600         124   0.0025224281   0.0031339258   0.0023440515   0.0011871626 
     24700         124   0.0023729785   0.002948246    0.0021906912   0.0011459171 
     24800         124   0.0020548682   0.002553018    0.0019022677   0.0012001253 
     24900         124   0.0017362034   0.0021571012   0.0016106011   0.0016379677 
     25000         124   0.0014736685   0.0018309215   0.0013860737   0.0011469686 
Loop time of 0.143946 on 4 procs for 5000 steps with 124 atoms

Performance: 15005648.559 tau/day, 34735.298 timesteps/s, 4.307 Matom-step/s
94.8% CPU use with 4 MPI tasks x 1 OpenMP threads

MPI task timing breakdown:
Section |  min time  |  avg time  |  max time  |%varavg| %total
---------------------------------------------------------------
Pair    | 0.00070165 | 0.043124   | 0.093352   |  20.6 | 29.96
Neigh   | 0.00057972 | 0.0023707  | 0.0046939  |   3.6 |  1.65
Comm    | 0.036402   | 0.087679   | 0.13203    |  14.9 | 60.91
Output  | 0.00031033 | 0.00036195 | 0.00045121 |   0.0 |  0.25
Modify  | 0.0018     | 0.0039233  | 0.0059304  |   3.1 |  2.73
Other   |            | 0.006486   |            |       |  4.51

Nlocal:             31 ave          60 max           5 min
Histogram: 2 0 0 0 0 0 0 0 1 1
Nghost:             93 ave         119 max          64 min
Histogram: 1 1 0 0 0 0 0 0 0 2
Neighs:              0 ave           0 max           0 min
Histogram: 4 0 0 0 0 0 0 0 0 0

Total # of neighbors = 0
Ave neighs/atom = 0
Neighbor list builds = 182
Dangerous builds = 0

Total wall time: 0:00:00
