LAMMPS (4 Jul 2026 - Development - patch_4Jul2026-197-g34022a802c)
OMP_NUM_THREADS environment is not set. Defaulting to 1 thread.
  using 1 OpenMP thread(s) per MPI task
# pouring spheres into box made of triangles

units           lj
atom_style      tri
atom_modify     map array
boundary        f f f
dimension       3
comm_modify     vel yes cutoff 12.5

read_data       data.tri
Reading data file ...
  orthogonal box = (-7 -7 0) to (7 7 9)
  2 by 2 by 1 MPI processor grid
  reading atoms ...
  4 atoms
  4 triangles
  read_data CPU = 0.001 seconds

pair_style      hybrid granular surf/granular
pair_coeff      1 1 granular hooke 4000.0 100.0                          tangential linear_history 1000.0 1.0 0.5                          damping mass_velocity
pair_coeff      1 2 surf/granular hooke 4000.0 100.0                          tangential linear_history 1000.0 1.0 0.5                          damping mass_velocity
pair_coeff      2 2 none

group           sphere type 1
0 atoms in group sphere
group           tri type 2
4 atoms in group tri

fix             fsl all surface/local
Connecting line/tri particles ...
Fix surface/local triangle creation:
  4 tris
  8 tri edges
  5 tri corner points
  4 edge connections
  2 corner point connections
  4 free edges
  0 free corner points
  8.48528137423857 min edge length
  12 max edge length
  36 min tri area
  36 max tri area

neighbor        0.3 bin
neigh_modify    delay 0 every 1 check yes

fix             2 sphere nve/sphere
fix             3 sphere gravity 1.0 vector 0 0 -1

region          slab block -2 2 -2 2 7 9 units box
fix             ins sphere pour 100 1 4767548 vol 0.4 10                 diam one 1.0 region slab ignore

region          zcylinder cylinder z 0 0 7.0 INF INF units box
fix             wall sphere wall/gran/region granular hooke 4000.0 100.0                          tangential linear_history 1000.0 1.0 0.5                          damping mass_velocity                          region zcylinder

timestep        0.005

compute         1 sphere temp
compute_modify  1 dynamic/dof yes

compute         2 sphere temp/sphere
compute_modify  2 dynamic/dof yes

thermo          100
thermo_style    custom step atoms temp c_1 c_2 press
thermo_modify   lost ignore
compute_modify  thermo_temp dynamic/dof yes

#dump           2 all image 100 tmp.image.*.ppm type type #               zoom 1.4 adiam 1.0 tri type 2 0.2
#dump_modify        2 pad 5

run             5000
Generated 0 of 1 mixed pair_coeff terms from geometric mixing rule
Particle insertion: 24 every 400 steps, 100 by step 1601
Neighbor list info ...
  update: every = 1 steps, delay = 0 steps, check = yes
  max neighbors/atom: 2000, page size: 100000
  master list distance cutoff = 7.1245553
  ghost atom cutoff = 12.5
  binsize = 3.5622777, bins = 4 4 3
  3 neighbor lists, perpetual/occasional/extra = 3 0 0
  (1) pair granular, perpetual, skip from (3)
      attributes: half, newton on, size, history, off2on
      pair build: skip/size/off2on
      stencil: none
      bin: none
  (2) pair surf/granular, perpetual, skip from (3)
      attributes: half, newton on, size, history, onesided, off2on
      pair build: skip/size/off2on/oneside
      stencil: none
      bin: none
  (3) neighbor class addition, perpetual
      attributes: half, newton off, size, history
      pair build: half/size/bin/atomonly/newtoff
      stencil: full/bin/3d
      bin: standard
Per MPI rank memory allocation (min/avg/max) = 19.81 | 19.9 | 19.93 Mbytes
   Step        Atoms         Temp           c_1            c_2           Press     
         0           4   0              0              0              0            
       100          28   0.36763289     0.43156905     0.21119336     0.005627034  
       200          28   0.62433559     0.73291569     0.35866087     0.009556157  
       300          28   0.95860848     1.125323       0.55068998     0.014672579  
       400          28   1.3704516      1.608791       0.78728068     0.020976299  
WARNING: Fewer insertions than requested (src/GRANULAR/fix_pour.cpp:691)
       500          48   0.95482403     1.0436449      0.51675284     0.025440323  
       600          48   0.86515042     0.94562952     0.46979853     0.023349292  
       700          48   0.91653827     1.0017976      0.50260392     0.032544978  
       800          48   0.76003034     0.83073083     0.42839142     0.024158751  
       900          72   0.67093513     0.71099096     0.36468692     0.027844556  
      1000          72   0.68959976     0.73076989     0.37895041     0.025596063  
      1100          72   0.6356391      0.67358771     0.35413027     0.026689915  
      1200          72   0.6694845      0.70945372     0.37432259     0.054490577  
WARNING: Fewer insertions than requested (src/GRANULAR/fix_pour.cpp:691)
      1300          92   0.49826871     0.52117762     0.27762625     0.041204925  
      1400          92   0.50701183     0.53032272     0.28089642     0.027699075  
      1500          92   0.48454184     0.50681963     0.27191721     0.026619921  
      1600          92   0.46085667     0.48204548     0.25780353     0.04344914   
      1700         103   0.36517629     0.38008145     0.20671684     0.041198073  
      1800         103   0.31739377     0.33034862     0.1811815      0.035738254  
      1900         103   0.28225285     0.29377338     0.16201351     0.01872455   
      2000         103   0.22768484     0.2369781      0.13249543     0.023734046  
      2100         102   0.26020095     0.27093088     0.14760172     0.018864578  
      2200         101   0.19721058     0.20542768     0.11639273     0.022118523  
      2300         101   0.12290352     0.1280245      0.077000251    0.01423055   
      2400         101   0.058240276    0.060666954    0.041258107    0.025555226  
      2500         101   0.042699051    0.044478178    0.031130541    0.012247181  
      2600         101   0.031382607    0.032690216    0.022698749    0.0093314345 
      2700         101   0.021648545    0.022550568    0.016556029    0.0084362756 
      2800         101   0.015338011    0.015977095    0.012158849    0.0084782841 
      2900         101   0.01068973     0.011135135    0.0087967109   0.0081450486 
      3000         101   0.0089091124   0.0092803255   0.0070873062   0.0085286187 
      3100         100   0.0075556587   0.0078737917   0.0059468766   0.0066300166 
      3200         100   0.0059359756   0.0061859114   0.0049017934   0.0094716002 
      3300         100   0.0049182137   0.0051252964   0.0040563271   0.0066557537 
      3400         100   0.0031065337   0.0032373351   0.0029029434   0.0061123028 
      3500         100   0.0027705214   0.002887175    0.0025945033   0.0079915334 
      3600         100   0.0016194494   0.0016876367   0.0018226415   0.0075316246 
      3700         100   0.0012946799   0.0013491928   0.0014771831   0.0064717535 
      3800         100   0.0011869253   0.0012369011   0.0013669427   0.0065649457 
      3900         100   0.0011841227   0.0012339805   0.0014102004   0.0065553946 
      4000         100   0.0011723339   0.0012216953   0.0014524655   0.0072816851 
      4100         100   0.00094427595  0.00098403494  0.0011370971   0.0069711495 
      4200         100   0.00096509907  0.0010057348   0.0010601333   0.0067353324 
      4300         100   0.0012109542   0.0012619417   0.0011525401   0.0065545423 
      4400         100   0.00070973952  0.00073962329  0.00089427809  0.0065492815 
      4500         100   0.00070493123  0.00073461254  0.00090831036  0.0066046238 
      4600         100   0.00067750714  0.00070603376  0.00091071631  0.0066115574 
      4700         100   0.00060892331  0.00063456218  0.00082151267  0.0068564378 
      4800         100   0.00060240741  0.00062777193  0.00078613196  0.0066816099 
      4900         100   0.00058813856  0.00061290229  0.00076045958  0.0070107198 
      5000         100   0.00059146409  0.00061636784  0.00075204393  0.0067884337 
Loop time of 0.0692438 on 4 procs for 5000 steps with 100 atoms

Performance: 31194133.189 tau/day, 72208.642 timesteps/s, 7.221 Matom-step/s
97.7% CPU use with 4 MPI tasks x 1 OpenMP threads

MPI task timing breakdown:
Section |  min time  |  avg time  |  max time  |%varavg| %total
---------------------------------------------------------------
Pair    | 0.022668   | 0.023738   | 0.025731   |   0.8 | 34.28
Neigh   | 0.0019152  | 0.0020731  | 0.0022324  |   0.3 |  2.99
Comm    | 0.029082   | 0.031868   | 0.035089   |   1.3 | 46.02
Output  | 0.00028828 | 0.00033405 | 0.00042045 |   0.0 |  0.48
Modify  | 0.0059848  | 0.0064071  | 0.0066349  |   0.3 |  9.25
Other   |            | 0.004823   |            |       |  6.96

Nlocal:             25 ave          27 max          24 min
Histogram: 2 0 0 1 0 0 0 0 0 1
Nghost:             75 ave          76 max          73 min
Histogram: 1 0 0 0 0 0 1 0 0 2
Neighs:              0 ave           0 max           0 min
Histogram: 4 0 0 0 0 0 0 0 0 0

Total # of neighbors = 0
Ave neighs/atom = 0
Neighbor list builds = 317
Dangerous builds = 0

fix             1 tri move rotate 0 0 0 0 0 1 25
run             5000
Generated 0 of 1 mixed pair_coeff terms from geometric mixing rule
Per MPI rank memory allocation (min/avg/max) = 20.86 | 20.86 | 20.87 Mbytes
   Step        Atoms         Temp           c_1            c_2           Press     
      5000         100   0.00059146409  0.00061636784  0.00075204393  0.0068144769 
      5100         100   0.51526107     0.02631333     0.025261998    0.034456966  
      5200          96   0.54439431     0.035234949    0.044261559    0.035767649  
      5300          93   0.56318062     0.037517476    0.046803876    0.034547226  
      5400          92   0.57155031     0.040229866    0.048695994    0.034322631  
      5500          91   0.58135789     0.044315472    0.050036074    0.034220775  
      5600          89   0.59473319     0.045540966    0.050414278    0.03387021   
      5700          86   0.61531976     0.046803701    0.050057145    0.033495787  
      5800          85   0.62272208     0.047469685    0.050752742    0.034355105  
      5900          82   0.64350473     0.04691953     0.050376981    0.034403434  
      6000          81   0.65098155     0.046940063    0.050551318    0.033528254  
      6100          79   0.66690911     0.047403125    0.049717282    0.033133231  
      6200          77   0.683498       0.04770512     0.048399386    0.033077874  
      6300          76   0.69220669     0.047949612    0.047835883    0.033129386  
      6400          75   0.70120846     0.048262089    0.04800677     0.032941877  
      6500          73   0.71931593     0.048230399    0.046800326    0.032727862  
      6600          73   0.72082299     0.049826113    0.047825764    0.032997736  
      6700          71   0.73891613     0.048682564    0.045636048    0.032648652  
      6800          71   0.73941008     0.049206454    0.045684325    0.033257124  
      6900          71   0.74011574     0.049954885    0.046666799    0.032728105  
      7000          71   0.73978079     0.049599634    0.046714179    0.032591164  
      7100          71   0.73928695     0.049075867    0.046746895    0.03300594   
      7200          71   0.73815103     0.047871104    0.046225002    0.032483747  
      7300          71   0.73753111     0.047213607    0.046223417    0.03243828   
      7400          70   0.74671504     0.046342431    0.046082223    0.032311695  
      7500          69   0.75609045     0.04536049     0.046359955    0.032176553  
      7600          68   0.76532043     0.043895063    0.045924449    0.032056053  
      7700          66   0.78612849     0.042414298    0.044580003    0.031883804  
      7800          64   0.80772771     0.040267226    0.043788295    0.031657283  
      7900          63   0.82015538     0.0403199      0.043956881    0.031856758  
      8000          62   0.83228629     0.039620771    0.043599029    0.031563097  
      8100          60   0.85852446     0.03894297     0.042963391    0.031358352  
      8200          59   0.87217748     0.03842989     0.04279254     0.031313791  
      8300          58   0.88680553     0.038430863    0.042903827    0.031297006  
      8400          57   0.9016041      0.038052889    0.042960326    0.031220564  
      8500          56   0.91735662     0.038108517    0.043076563    0.031140888  
      8600          54   0.94776249     0.03510882     0.040634517    0.030939616  
      8700          54   0.94831648     0.035708042    0.041300369    0.03118666   
      8800          54   0.94998619     0.037514046    0.043104671    0.030915096  
      8900          54   0.95258068     0.040320336    0.043995971    0.030982446  
      9000          53   0.9662034      0.036072863    0.04290937     0.031361217  
      9100          53   0.96573329     0.035563571    0.043748412    0.031529527  
      9200          53   0.96702915     0.036967421    0.045845462    0.030903599  
      9300          52   0.98499058     0.036668936    0.045735267    0.030791962  
      9400          52   0.98697787     0.038825358    0.048579944    0.030824091  
      9500          51   1.0050091      0.037812531    0.04765256     0.030677035  
      9600          49   1.0436675      0.036021813    0.044737228    0.030589274  
      9700          48   1.0641321      0.034956478    0.043744548    0.030501421  
      9800          48   1.0646583      0.035531677    0.045306697    0.030491903  
      9900          48   1.0653792      0.036319638    0.047371614    0.030473913  
     10000          47   1.0883051      0.036927526    0.047721262    0.030403266  
Loop time of 0.0583019 on 4 procs for 5000 steps with 47 atoms

Performance: 37048554.837 tau/day, 85760.544 timesteps/s, 4.031 Matom-step/s
97.7% CPU use with 4 MPI tasks x 1 OpenMP threads

MPI task timing breakdown:
Section |  min time  |  avg time  |  max time  |%varavg| %total
---------------------------------------------------------------
Pair    | 0.019978   | 0.021838   | 0.023171   |   0.8 | 37.46
Neigh   | 0.00085662 | 0.00092841 | 0.000981   |   0.0 |  1.59
Comm    | 0.023665   | 0.026435   | 0.028408   |   1.1 | 45.34
Output  | 0.00027064 | 0.00030801 | 0.00040215 |   0.0 |  0.53
Modify  | 0.0041427  | 0.0043888  | 0.0045656  |   0.2 |  7.53
Other   |            | 0.004403   |            |       |  7.55

Nlocal:          11.75 ave          15 max          10 min
Histogram: 1 0 2 0 0 0 0 0 0 1
Nghost:          35.25 ave          37 max          32 min
Histogram: 1 0 0 0 0 0 0 0 2 1
Neighs:              0 ave           0 max           0 min
Histogram: 4 0 0 0 0 0 0 0 0 0

Total # of neighbors = 0
Ave neighs/atom = 0
Neighbor list builds = 169
Dangerous builds = 0

unfix           1
set             group tri angmom 0.0 0.0 0.0
Setting atom values ...
  4 settings made for angmom
velocity        tri set 0.0 0.0 0.0
run             5000
Generated 0 of 1 mixed pair_coeff terms from geometric mixing rule
Per MPI rank memory allocation (min/avg/max) = 19.99 | 19.99 | 19.99 Mbytes
   Step        Atoms         Temp           c_1            c_2           Press     
     10000          47   0.033716437    0.036927526    0.047721262    0.0057870726 
     10100          47   0.0077125189   0.0084470445   0.010310932    0.0024594409 
     10200          47   0.0030582063   0.0033494641   0.0060537835   0.0026622537 
     10300          47   0.0027823306   0.0030473145   0.0059073474   0.0034145062 
     10400          47   0.0025240574   0.0027644438   0.005512188    0.0027582187 
     10500          47   0.0026919413   0.0029483167   0.0057457807   0.0029262627 
     10600          47   0.0033603706   0.0036804059   0.0062863143   0.0032117993 
     10700          46   0.0021105702   0.0023164795   0.0031393474   0.0025456331 
     10800          46   0.0021228568   0.0023299648   0.0030044491   0.0025772803 
     10900          46   0.0025484393   0.0027970676   0.0032606885   0.0026381234 
     11000          46   0.0040938335   0.0044932318   0.0043261822   0.0027118983 
     11100          46   0.0020272704   0.0022250529   0.0028344202   0.0032000666 
     11200          45   0.0019848395   0.0021833234   0.0022075638   0.0020972123 
     11300          45   0.0017693801   0.0019463181   0.0021639733   0.00238932   
     11400          45   0.0020842018   0.0022926219   0.0025200445   0.0025479649 
     11500          45   0.0017820676   0.0019602744   0.0024899129   0.0041839313 
     11600          45   0.0017325585   0.0019058143   0.0026077469   0.002976492  
     11700          45   0.0017884557   0.0019673012   0.0028084958   0.0028667039 
     11800          45   0.0018430079   0.0020273087   0.0029565035   0.0029555166 
     11900          45   0.0024233494   0.0026656843   0.0035969073   0.0030265445 
     12000          45   0.0045426337   0.0049968971   0.0050842679   0.0032471376 
     12100          45   0.0015260237   0.0016786261   0.0033576197   0.0038748657 
     12200          44   0.0013573649   0.0014965818   0.0031501326   0.0037239243 
     12300          44   0.001301238    0.0014346984   0.0033433655   0.0039382583 
     12400          44   0.0013735818   0.001514462    0.0037036826   0.004188356  
     12500          44   0.0016397003   0.0018078746   0.0042155494   0.0047904641 
     12600          42   0.0016602932   0.0018397843   0.0036555506   0.003213333  
     12700          41   0.001675316    0.0018614623   0.0034625104   0.0023059147 
     12800          41   0.0017154922   0.0019061025   0.0038884693   0.0023535183 
     12900          41   0.0017287477   0.0019208307   0.0043286871   0.0024383586 
     13000          41   0.0017156246   0.0019062495   0.0047751048   0.0025866843 
     13100          41   0.0016813372   0.0018681525   0.0052178933   0.002750684  
     13200          41   0.0016263307   0.0018070341   0.0056510935   0.0029307313 
     13300          41   0.0016091173   0.0017879081   0.0061033316   0.0032109685 
     13400          41   0.0015510005   0.0017233338   0.005882152    0.0042250229 
     13500          40   0.0019598176   0.0021837968   0.0047838404   0.0032271152 
     13600          40   0.0011545561   0.0012865054   0.0042545994   0.0034506524 
     13700          40   0.0011646496   0.0012977524   0.0044435913   0.0035946439 
     13800          39   0.0010481858   0.0011715018   0.0026633561   0.0026341442 
     13900          39   0.0010153992   0.0011348579   0.0028278372   0.0026003312 
     14000          39   0.00098454732  0.0011003764   0.0030174642   0.0026611389 
     14100          39   0.0009554173   0.0010678193   0.0032163375   0.0027016077 
     14200          39   0.00093298656  0.0010427497   0.0033994342   0.0029161489 
     14300          39   0.00087158947  0.0009741294   0.0035650203   0.0028676193 
     14400          39   0.00086966953  0.0009719836   0.0037578869   0.0032220819 
     14500          38   0.00082129909  0.0009208505   0.0017872835   0.0024015422 
     14600          38   0.00080246132  0.00089972936  0.0018981315   0.0023798975 
     14700          38   0.00078876919  0.00088437758  0.0020059608   0.0024042293 
     14800          38   0.00069035916  0.00077403905  0.0020143819   0.0024752545 
     14900          38   0.00069474159  0.00077895269  0.0021285197   0.0025183601 
     15000          38   0.00070915804  0.00079511659  0.0022476722   0.0026491599 
Loop time of 0.040076 on 4 procs for 5000 steps with 38 atoms

Performance: 53897579.104 tau/day, 124762.915 timesteps/s, 4.741 Matom-step/s
98.7% CPU use with 4 MPI tasks x 1 OpenMP threads

MPI task timing breakdown:
Section |  min time  |  avg time  |  max time  |%varavg| %total
---------------------------------------------------------------
Pair    | 0.011333   | 0.013508   | 0.01663    |   1.9 | 33.71
Neigh   | 0.00012473 | 0.0001381  | 0.00016189 |   0.0 |  0.34
Comm    | 0.015216   | 0.019559   | 0.023241   |   2.1 | 48.80
Output  | 0.00026616 | 0.00030274 | 0.00037995 |   0.0 |  0.76
Modify  | 0.0020094  | 0.0026006  | 0.0032434  |   0.9 |  6.49
Other   |            | 0.003968   |            |       |  9.90

Nlocal:            9.5 ave          13 max           5 min
Histogram: 1 0 0 0 0 1 0 1 0 1
Nghost:           28.5 ave          33 max          25 min
Histogram: 1 0 1 0 0 1 0 0 0 1
Neighs:              0 ave           0 max           0 min
Histogram: 4 0 0 0 0 0 0 0 0 0

Total # of neighbors = 0
Ave neighs/atom = 0
Neighbor list builds = 47
Dangerous builds = 0
Total wall time: 0:00:00
