LAMMPS (4 Jul 2026 - Development - patch_4Jul2026-197-g34022a802c)
OMP_NUM_THREADS environment is not set. Defaulting to 1 thread.
  using 1 OpenMP thread(s) per MPI task
# pouring spheres into box made of triangles

units           lj
atom_style      tri
atom_modify     map array
boundary        f f f
dimension       3
comm_modify     vel yes cutoff 12.5

region          box block -10 10 -10 10 -10 10 units box
create_box      2 box
Created orthogonal box = (-10 -10 -10) to (10 10 10)
  1 by 1 by 1 MPI processor grid

molecule        tris surf.tribox
Read molecule template tris:
LAMMPS data file for tri box
  1 molecules
  0 fragments
  0 bodies
  0 atoms with max type 0
  0 bonds with max type 0
  0 angles with max type 0
  0 dihedrals with max type 0
  0 impropers with max type 0
  24 triangles
fix             20 all surface/local input mol tris
Converting molecule file to line/tri particles ...
Fix surface/local triangle creation:
  24 tris
  36 tri edges
  14 tri corner points
  36 edge connections
  84 corner point connections
  0 free edges
  0 free corner points
  8.485281374238568 min edge length
  12.000000000000005 max edge length
  35.999999999999986 min tri area
  36.000000000000036 max tri area

pair_style      hybrid granular surf/granular
pair_coeff      1 1 granular hooke 4000.0 100.0                          tangential linear_history 1000.0 1.0 0.5                          damping mass_velocity
pair_coeff      1 2 surf/granular hooke 4000.0 100.0                          tangential linear_history 1000.0 1.0 0.5                          damping mass_velocity
pair_coeff      2 2 none

group           sphere type 1
0 atoms in group sphere
group           tri type 2
24 atoms in group tri

neighbor        0.3 bin
neigh_modify    delay 0 every 1 check yes

fix             2 sphere nve/sphere
fix             3 sphere gravity 1.0 vector 0 0 -1

region          slab block -2 2 -2 2 -2 2 units box
fix             ins sphere pour 100 1 4767548 vol 0.4 10                 diam one 1.0 region slab ignore

timestep        0.005

compute         1 sphere temp
compute_modify  1 dynamic/dof yes

compute         2 sphere temp/sphere
compute_modify  2 dynamic/dof yes

thermo          100
thermo_style    custom step atoms temp c_1 c_2 press
thermo_modify   lost ignore
compute_modify  thermo_temp dynamic/dof yes

#dump           2 all image 100 tmp.image.*.ppm type type #               zoom 1.4 adiam 1.0 tri type 2 0.2
#dump_modify        2 pad 5

run             5000
Generated 0 of 1 mixed pair_coeff terms from geometric mixing rule
Particle insertion: 48 every 566 steps, 100 by step 1133
Neighbor list info ...
  update: every = 1 steps, delay = 0 steps, check = yes
  max neighbors/atom: 2000, page size: 100000
  master list distance cutoff = 7.1245553
  ghost atom cutoff = 12.5
  binsize = 3.5622777, bins = 6 6 6
  3 neighbor lists, perpetual/occasional/extra = 3 0 0
  (1) pair granular, perpetual, skip from (3)
      attributes: half, newton on, size, history, off2on
      pair build: skip/size/off2on
      stencil: none
      bin: none
  (2) pair surf/granular, perpetual, skip from (3)
      attributes: half, newton on, size, history, onesided, off2on
      pair build: skip/size/off2on/oneside
      stencil: none
      bin: none
  (3) neighbor class addition, perpetual
      attributes: half, newton off, size, history
      pair build: half/size/bin/atomonly/newtoff
      stencil: full/bin/3d
      bin: standard
Per MPI rank memory allocation (min/avg/max) = 18.99 | 18.99 | 18.99 Mbytes
   Step        Atoms         Temp           c_1            c_2           Press     
         0          24   0              0              0              0            
WARNING: Fewer insertions than requested (src/GRANULAR/fix_pour.cpp:691)
       100          54   0.43980579     0.803783       0.39507978     0.0029137134 
       200          54   0.65485258     1.1967995      0.5882574      0.0043383984 
       300          54   0.70118095     1.2814686      0.62987441     0.0046453238 
       400          54   0.45325721     0.82836663     0.40994817     0.0030286739 
       500          54   0.45475589     0.83110558     0.414729       0.0043230409 
WARNING: Fewer insertions than requested (src/GRANULAR/fix_pour.cpp:691)
       600          88   0.36933761     0.51003765     0.26258869     0.0037590791 
       700          88   0.42058223     0.58080404     0.29751792     0.0066900783 
       800          88   0.46104238     0.63667757     0.32644388     0.0051500426 
       900          88   0.41290353     0.57020011     0.29762919     0.0068481023 
      1000          88   0.34695571     0.47912932     0.25178552     0.0041029274 
      1100          88   0.33424829     0.46158097     0.2466537      0.0043754036 
WARNING: Fewer insertions than requested (src/GRANULAR/fix_pour.cpp:691)
      1200         123   0.3614775      0.4500026      0.23713789     0.013930637  
      1300         123   0.34569407     0.43035384     0.22891578     0.0057803716 
      1400         123   0.33079906     0.41181107     0.21811838     0.006524053  
      1500         123   0.28224178     0.35136222     0.18849775     0.0096119827 
      1600         123   0.23235374     0.2892567      0.1586093      0.0067102243 
      1700         124   0.1803208      0.22403494     0.12490013     0.0057362126 
      1800         124   0.10284771     0.12778048     0.077345781    0.0037354665 
      1900         124   0.049671325    0.061712858    0.040709047    0.003408587  
      2000         124   0.048746633    0.060563999    0.039225805    0.0027567148 
      2100         124   0.037102486    0.046097028    0.030465402    0.002292218  
      2200         124   0.036513988    0.045365864    0.028842903    0.0023512141 
      2300         124   0.020055586    0.024917546    0.018141141    0.0015160806 
      2400         124   0.015847637    0.019689488    0.014445083    0.0018300013 
      2500         124   0.010443859    0.012975703    0.0099855107   0.0019983694 
      2600         124   0.0085870058   0.010668704    0.008157597    0.0017964227 
      2700         124   0.0056632665   0.0070361796   0.0058270399   0.0013830096 
      2800         124   0.0045294324   0.0056274766   0.0047486988   0.0013401946 
      2900         124   0.0034641045   0.0043038873   0.0038970392   0.0017009806 
      3000         124   0.0026932684   0.003346182    0.003081414    0.0021874149 
      3100         124   0.0025393014   0.0031548897   0.0027977771   0.0014060935 
      3200         124   0.0020944729   0.0026022238   0.0023854613   0.001382429  
      3300         124   0.0022826702   0.0028360448   0.0023230527   0.0011330784 
      3400         124   0.0014797546   0.001838483    0.0017397037   0.0013738247 
      3500         124   0.0017038049   0.0021168485   0.0018087875   0.0011773565 
      3600         124   0.0011592698   0.0014403049   0.0014165099   0.001191084  
      3700         124   0.00097340477  0.0012093817   0.0012549935   0.001265213  
      3800         124   0.00079298167  0.00098521965  0.0010821601   0.0010746417 
      3900         124   0.00070507186  0.00087599837  0.0010035878   0.0012451636 
      4000         124   0.00066565657  0.00082702787  0.00096614807  0.0011267819 
      4100         124   0.00061422538  0.0007631285   0.00090466977  0.001152756  
      4200         124   0.00053548329  0.00066529742  0.00082227906  0.0012378984 
      4300         124   0.00045286293  0.00056264789  0.00074554187  0.0011024596 
      4400         124   0.00039970917  0.00049660837  0.00067637389  0.0011069397 
      4500         124   0.00037907615  0.00047097339  0.00064867291  0.001098366  
      4600         124   0.0003573483   0.00044397818  0.00062494167  0.0010960175 
      4700         124   0.00034522889  0.00042892074  0.00060157562  0.0010968183 
      4800         124   0.00033407083  0.00041505769  0.00058566959  0.0010958287 
      4900         124   0.00032453122  0.00040320545  0.00057656816  0.0010884178 
      5000         124   0.00030643054  0.00038071674  0.00055904726  0.0010929908 
Loop time of 0.156227 on 1 procs for 5000 steps with 124 atoms

Performance: 13826069.973 tau/day, 32004.792 timesteps/s, 3.969 Matom-step/s
99.6% CPU use with 1 MPI tasks x 1 OpenMP threads

MPI task timing breakdown:
Section |  min time  |  avg time  |  max time  |%varavg| %total
---------------------------------------------------------------
Pair    | 0.13886    | 0.13886    | 0.13886    |   0.0 | 88.89
Neigh   | 0.0083531  | 0.0083531  | 0.0083531  |   0.0 |  5.35
Comm    | 0.00043168 | 0.00043168 | 0.00043168 |   0.0 |  0.28
Output  | 0.00027288 | 0.00027288 | 0.00027288 |   0.0 |  0.17
Modify  | 0.0064333  | 0.0064333  | 0.0064333  |   0.0 |  4.12
Other   |            | 0.001874   |            |       |  1.20

Nlocal:            124 ave         124 max         124 min
Histogram: 1 0 0 0 0 0 0 0 0 0
Nghost:              0 ave           0 max           0 min
Histogram: 1 0 0 0 0 0 0 0 0 0
Neighs:              0 ave           0 max           0 min
Histogram: 1 0 0 0 0 0 0 0 0 0

Total # of neighbors = 0
Ave neighs/atom = 0
Neighbor list builds = 270
Dangerous builds = 0

fix             1 tri move rotate 0 0 0 0 0 1 25
run             5000
Generated 0 of 1 mixed pair_coeff terms from geometric mixing rule
Per MPI rank memory allocation (min/avg/max) = 19.87 | 19.87 | 19.87 Mbytes
   Step        Atoms         Temp           c_1            c_2           Press     
      5000         124   0.00030643054  0.00038071674  0.00055904726  0.0010937633 
      5100         124   5.2132509      0.10692751     0.063397329    0.083558432  
      5200         124   5.2276542      0.12482249     0.077124579    0.082296788  
      5300         124   5.2462782      0.14796145     0.084815894    0.08276868   
      5400         124   5.2567354      0.16095368     0.089046856    0.082008699  
      5500         124   5.2597642      0.1647168      0.08957859     0.082500474  
      5600         124   5.2677565      0.17464664     0.093837598    0.08213223   
      5700         124   5.2731376      0.18133223     0.096616234    0.083306925  
      5800         124   5.2790599      0.18869023     0.099612478    0.082598572  
      5900         124   5.2858469      0.19712261     0.10340488     0.082803251  
      6000         124   5.2916588      0.20434343     0.10669817     0.082669501  
      6100         124   5.2980794      0.21232054     0.11036654     0.083073967  
      6200         124   5.3114078      0.22888008     0.11797887     0.084002536  
      6300         124   5.3166332      0.23537216     0.12092936     0.084669673  
      6400         124   5.3263125      0.24739797     0.12634072     0.084733922  
      6500         124   5.3312828      0.25357329     0.12954068     0.083851213  
      6600         124   5.3351879      0.25842507     0.13207172     0.08516661   
      6700         124   5.3413308      0.26605716     0.1354873      0.085367073  
      6800         124   5.3490965      0.27570545     0.13961625     0.086344904  
      6900         124   5.3598105      0.28901675     0.14584641     0.085102958  
      7000         124   5.3629765      0.29295021     0.14785399     0.085066918  
      7100         124   5.3660756      0.29680067     0.14977254     0.085109993  
      7200         124   5.3752522      0.30820185     0.15470378     0.08786509   
      7300         124   5.3784976      0.312234       0.15641011     0.085359575  
      7400         124   5.3824575      0.31715396     0.15895858     0.086071568  
      7500         124   5.3827901      0.31756712     0.15931905     0.086404265  
      7600         124   5.3818244      0.31636738     0.15842598     0.085874589  
      7700         124   5.3826467      0.31738897     0.15896482     0.086105126  
      7800         124   5.3852179      0.32058352     0.16057615     0.085850467  
      7900         124   5.3874528      0.32336014     0.16191001     0.086662576  
      8000         124   5.3884254      0.32456854     0.16248612     0.085748424  
      8100         124   5.3873929      0.32328581     0.16181276     0.085766344  
      8200         124   5.3867525      0.32249017     0.1614334      0.086687371  
      8300         124   5.3868483      0.32260918     0.16146407     0.085285968  
      8400         124   5.389178       0.32550358     0.16289388     0.085950217  
      8500         124   5.3885915      0.32477496     0.16248121     0.08589076   
      8600         124   5.3903946      0.32701512     0.16361128     0.086435009  
      8700         124   5.3926415      0.32980681     0.16496171     0.086518183  
      8800         124   5.393849       0.33130696     0.16569762     0.085791022  
      8900         124   5.3939261      0.33140278     0.16573678     0.085286173  
      9000         124   5.3927857      0.32998596     0.16506235     0.085461203  
      9100         124   5.3931244      0.3304068      0.16528887     0.085926197  
      9200         124   5.3938041      0.33125125     0.16580443     0.085994626  
      9300         124   5.3942674      0.33182677     0.16597063     0.085686078  
      9400         124   5.3946367      0.33228564     0.16624399     0.085812621  
      9500         124   5.3928618      0.33008046     0.16518647     0.086032183  
      9600         124   5.3920186      0.32903282     0.16451432     0.085597388  
      9700         124   5.3945845      0.33222079     0.1661338      0.08633457   
      9800         124   5.3952534      0.33305186     0.16647375     0.08596179   
      9900         124   5.3950294      0.33277352     0.16637638     0.085666155  
     10000         124   5.3943475      0.33192635     0.16603148     0.085722735  
Loop time of 0.291077 on 1 procs for 5000 steps with 124 atoms

Performance: 7420715.198 tau/day, 17177.581 timesteps/s, 2.130 Matom-step/s
99.7% CPU use with 1 MPI tasks x 1 OpenMP threads

MPI task timing breakdown:
Section |  min time  |  avg time  |  max time  |%varavg| %total
---------------------------------------------------------------
Pair    | 0.26202    | 0.26202    | 0.26202    |   0.0 | 90.02
Neigh   | 0.01387    | 0.01387    | 0.01387    |   0.0 |  4.77
Comm    | 0.00052204 | 0.00052204 | 0.00052204 |   0.0 |  0.18
Output  | 0.00043503 | 0.00043503 | 0.00043503 |   0.0 |  0.15
Modify  | 0.011999   | 0.011999   | 0.011999   |   0.0 |  4.12
Other   |            | 0.002232   |            |       |  0.77

Nlocal:            124 ave         124 max         124 min
Histogram: 1 0 0 0 0 0 0 0 0 0
Nghost:              0 ave           0 max           0 min
Histogram: 1 0 0 0 0 0 0 0 0 0
Neighs:              0 ave           0 max           0 min
Histogram: 1 0 0 0 0 0 0 0 0 0

Total # of neighbors = 0
Ave neighs/atom = 0
Neighbor list builds = 314
Dangerous builds = 0

unfix           1
set             group tri angmom 0.0 0.0 0.0
Setting atom values ...
  24 settings made for angmom
velocity        tri set 0.0 0.0 0.0
run             5000
Generated 0 of 1 mixed pair_coeff terms from geometric mixing rule
Per MPI rank memory allocation (min/avg/max) = 18.99 | 18.99 | 18.99 Mbytes
   Step        Atoms         Temp           c_1            c_2           Press     
     10000         124   0.26716023     0.33192635     0.16603148     0.008381742  
     10100         124   0.096116031    0.11941689     0.067103317    0.0040562764 
     10200         124   0.049741733    0.061800335    0.04232764     0.0037430599 
     10300         124   0.038188016    0.047445716    0.034293549    0.0019693197 
     10400         124   0.032403488    0.040258879    0.029272421    0.0024043265 
     10500         124   0.02662283     0.03307685     0.024274743    0.0019185287 
     10600         124   0.023315867    0.028968198    0.021251015    0.0019274394 
     10700         124   0.021283718    0.026443407    0.019537244    0.0014240421 
     10800         124   0.020795681    0.025837058    0.019103512    0.0014103802 
     10900         124   0.018545194    0.023040999    0.017105631    0.0020683115 
     11000         124   0.017173394    0.021336641    0.015836337    0.0032729829 
     11100         124   0.015554294    0.019325032    0.014408819    0.0016749161 
     11200         124   0.014037949    0.017441088    0.013000565    0.0017544235 
     11300         124   0.012049382    0.014970444    0.011199793    0.0014913662 
     11400         124   0.010651254    0.013233376    0.0098823747   0.0016176264 
     11500         124   0.0098322383   0.012215811    0.0091564433   0.0012294919 
     11600         124   0.0088047653   0.010939254    0.0082241015   0.0013542975 
     11700         124   0.0080359334   0.0099840384   0.0075303754   0.001546685  
     11800         124   0.0075247344   0.0093489124   0.0070099545   0.0012910591 
     11900         124   0.0072688861   0.0090310403   0.0067767338   0.0012095835 
     12000         124   0.0069735221   0.0086640729   0.0065065638   0.0012440031 
     12100         124   0.0062661688   0.00778524     0.0058844617   0.0012436691 
     12200         124   0.0049950712   0.0062059976   0.0047678901   0.0013052259 
     12300         124   0.0040250328   0.0050007983   0.0038501428   0.0015016842 
     12400         124   0.0032832048   0.0040791332   0.0031845327   0.0011415777 
     12500         124   0.0030895323   0.0038385098   0.003010046    0.0011228751 
     12600         124   0.0027720998   0.003444124    0.0027449356   0.0012140313 
     12700         124   0.0027031297   0.0033584339   0.0026806086   0.0011336896 
     12800         124   0.0025793505   0.0032046476   0.0025485315   0.0011516461 
     12900         124   0.0024578381   0.0030536776   0.0024349912   0.0010924403 
     13000         124   0.0022661023   0.0028154604   0.0022600572   0.0011673964 
     13100         124   0.0020941182   0.0026017832   0.0020932604   0.0011452374 
     13200         124   0.0020329975   0.0025258454   0.0020323633   0.0013392741 
     13300         124   0.001908943    0.0023717171   0.0019194813   0.0011259984 
     13400         124   0.0018088788   0.0022473949   0.0018089991   0.0011184791 
     13500         124   0.001677578    0.0020842636   0.0016815831   0.001121954  
     13600         124   0.0015700555   0.001950675    0.0015801092   0.0011159743 
     13700         124   0.0014796517   0.0018383552   0.0014920332   0.0011600605 
     13800         124   0.0013049519   0.0016213038   0.0013298211   0.0011395912 
     13900         124   0.0010995545   0.0013661131   0.0011226131   0.0011546129 
     14000         124   0.0010455418   0.0012990065   0.0010652308   0.0011706466 
     14100         124   0.00098760527  0.0012270247   0.001013583    0.0011443783 
     14200         124   0.00086726283  0.0010775084   0.00089836906  0.001118992  
     14300         124   0.00082426742  0.0010240898   0.00086472131  0.0011055414 
     14400         124   0.00065613432  0.00081519718  0.00072195681  0.0011008367 
     14500         124   0.00058893112  0.0007317023   0.00065409685  0.0011745859 
     14600         124   0.00055340231  0.00068756045  0.00061791611  0.0011777477 
     14700         124   0.00052372021  0.00065068268  0.00058959379  0.0010987791 
     14800         124   0.00050624073  0.00062896576  0.00057326631  0.001102148  
     14900         124   0.00048980079  0.00060854037  0.00054639369  0.0010999639 
     15000         124   0.00048106252  0.00059768374  0.00053198787  0.0011001303 
Loop time of 0.190111 on 1 procs for 5000 steps with 124 atoms

Performance: 11361802.205 tau/day, 26300.468 timesteps/s, 3.261 Matom-step/s
99.7% CPU use with 1 MPI tasks x 1 OpenMP threads

MPI task timing breakdown:
Section |  min time  |  avg time  |  max time  |%varavg| %total
---------------------------------------------------------------
Pair    | 0.17796    | 0.17796    | 0.17796    |   0.0 | 93.61
Neigh   | 0.0036675  | 0.0036675  | 0.0036675  |   0.0 |  1.93
Comm    | 0.00037377 | 0.00037377 | 0.00037377 |   0.0 |  0.20
Output  | 0.00034852 | 0.00034852 | 0.00034852 |   0.0 |  0.18
Modify  | 0.0060019  | 0.0060019  | 0.0060019  |   0.0 |  3.16
Other   |            | 0.001759   |            |       |  0.93

Nlocal:            124 ave         124 max         124 min
Histogram: 1 0 0 0 0 0 0 0 0 0
Nghost:              0 ave           0 max           0 min
Histogram: 1 0 0 0 0 0 0 0 0 0
Neighs:              0 ave           0 max           0 min
Histogram: 1 0 0 0 0 0 0 0 0 0

Total # of neighbors = 0
Ave neighs/atom = 0
Neighbor list builds = 89
Dangerous builds = 0

fix             1 tri move rotate 0 0 0 1 1 1 25
run             5000
Generated 0 of 1 mixed pair_coeff terms from geometric mixing rule
Per MPI rank memory allocation (min/avg/max) = 19.87 | 19.87 | 19.87 Mbytes
   Step        Atoms         Temp           c_1            c_2           Press     
     15000         124   0.00048106252  0.00059768374  0.00053198787  0.0011007918 
     15100         124   5.2711041      0.1788057      0.10267892     0.085237108  
     15200         124   5.2999191      0.21460625     0.12258992     0.085574242  
     15300         124   5.3301084      0.2521141      0.14277117     0.08835797   
     15400         124   5.3205474      0.24023536     0.13499602     0.087406095  
     15500         124   5.3255779      0.2464853      0.13792394     0.090018651  
     15600         124   5.3607879      0.29023104     0.15681423     0.090537683  
     15700         124   5.3703987      0.30217173     0.16335392     0.087724477  
     15800         124   5.376406       0.3096354      0.16884027     0.089406903  
     15900         124   5.3765786      0.30984986     0.16727538     0.10074702   
     16000         124   5.3752794      0.30823573     0.16168201     0.092459322  
     16100         124   5.3852115      0.3205756      0.16455515     0.088750151  
     16200         124   5.3720778      0.30425792     0.15700424     0.091895703  
     16300         124   5.3786276      0.31239555     0.16020747     0.11005406   
     16400         124   5.3812468      0.31564972     0.16041718     0.093059089  
     16500         124   5.3870505      0.32286033     0.16483993     0.093458752  
     16600         124   5.3853474      0.3207444      0.1644974      0.094649163  
     16700         124   5.3828284      0.31761468     0.1621229      0.093109123  
     16800         124   5.3604691      0.28983501     0.14773805     0.090094229  
     16900         124   5.337038       0.26072365     0.13405934     0.091175207  
     17000         124   5.3270349      0.24829551     0.12876859     0.087445076  
     17100         124   5.3104549      0.22769619     0.12240895     0.086420281  
     17200         124   5.3492519      0.27589843     0.14912952     0.08604379   
     17300         124   5.3770561      0.31044312     0.16703974     0.086780572  
     17400         124   5.4537822      0.40576943     0.21656217     0.084613953  
     17500         124   5.4873281      0.44744774     0.24052689     0.087203099  
     17600         124   5.5633392      0.54188579     0.29144885     0.085712613  
     17700         124   5.5529287      0.52895143     0.28315865     0.09033253   
     17800         124   5.5430623      0.51669326     0.28197307     0.091459361  
     17900         124   5.5687457      0.54860295     0.29805934     0.088400605  
     18000         124   5.5514362      0.52709715     0.28692095     0.090591199  
     18100         124   5.4765959      0.43411375     0.24357705     0.093044314  
     18200         124   5.4477245      0.39824318     0.22807953     0.086399309  
     18300         124   5.4182619      0.36163816     0.20980798     0.087853788  
     18400         124   5.3854879      0.320919       0.19326928     0.084181501  
     18500         124   5.389222       0.32555824     0.19816867     0.08495452   
     18600         124   5.3643397      0.29464391     0.18649647     0.086868834  
     18700         124   5.3617131      0.29138058     0.18867397     0.085353011  
     18800         124   5.3663288      0.29711521     0.19585841     0.083702577  
     18900         124   5.3784111      0.31212657     0.20466853     0.085880376  
     19000         124   5.3873938      0.32328692     0.20952318     0.089617271  
     19100         124   5.3983811      0.33693774     0.20334793     0.090354793  
     19200         124   5.3878216      0.32381844     0.19263898     0.086711318  
     19300         124   5.3992399      0.33800483     0.19853686     0.090382125  
     19400         124   5.4190175      0.36257693     0.20889548     0.089033465  
     19500         124   5.3895435      0.32595775     0.1874685      0.087198668  
     19600         124   5.3823259      0.31699039     0.18079911     0.085960587  
     19700         124   5.418364       0.36176498     0.19964526     0.090059019  
     19800         124   5.4327356      0.37962065     0.20733391     0.087461743  
     19900         124   5.4269893      0.37248135     0.20034667     0.09117548   
     20000         124   5.4212991      0.36541161     0.1953647      0.093323092  
Loop time of 0.205336 on 1 procs for 5000 steps with 124 atoms

Performance: 10519367.522 tau/day, 24350.388 timesteps/s, 3.019 Matom-step/s
99.7% CPU use with 1 MPI tasks x 1 OpenMP threads

MPI task timing breakdown:
Section |  min time  |  avg time  |  max time  |%varavg| %total
---------------------------------------------------------------
Pair    | 0.17062    | 0.17062    | 0.17062    |   0.0 | 83.09
Neigh   | 0.019108   | 0.019108   | 0.019108   |   0.0 |  9.31
Comm    | 0.00053147 | 0.00053147 | 0.00053147 |   0.0 |  0.26
Output  | 0.00031075 | 0.00031075 | 0.00031075 |   0.0 |  0.15
Modify  | 0.01253    | 0.01253    | 0.01253    |   0.0 |  6.10
Other   |            | 0.002234   |            |       |  1.09

Nlocal:            124 ave         124 max         124 min
Histogram: 1 0 0 0 0 0 0 0 0 0
Nghost:              0 ave           0 max           0 min
Histogram: 1 0 0 0 0 0 0 0 0 0
Neighs:              0 ave           0 max           0 min
Histogram: 1 0 0 0 0 0 0 0 0 0

Total # of neighbors = 0
Ave neighs/atom = 0
Neighbor list builds = 413
Dangerous builds = 0

unfix           1
set             group tri angmom 0.0 0.0 0.0
Setting atom values ...
  24 settings made for angmom
velocity        tri set 0.0 0.0 0.0
run             5000
Generated 0 of 1 mixed pair_coeff terms from geometric mixing rule
Per MPI rank memory allocation (min/avg/max) = 18.99 | 18.99 | 18.99 Mbytes
   Step        Atoms         Temp           c_1            c_2           Press     
     20000         124   0.29411178     0.36541161     0.1953647      0.00025841392
     20100         124   0.11182612     0.13893548     0.083870623    0.00357608   
     20200         124   0.097807513    0.12151843     0.069841078    0.0070129087 
     20300         124   0.10161265     0.12624602     0.071328446    0.0043578283 
     20400         124   0.10212938     0.12688802     0.071144415    0.0044563408 
     20500         124   0.089050067    0.11063796     0.063590738    0.0055375207 
     20600         124   0.073490453    0.091306321    0.053880057    0.0064831979 
     20700         124   0.078800442    0.097903579    0.057910429    0.0032388774 
     20800         124   0.060744477    0.075470411    0.048049933    0.0063814235 
     20900         124   0.064990786    0.080746128    0.050331155    0.0029063376 
     21000         124   0.060764107    0.0754948      0.047808942    0.0062961708 
     21100         124   0.049366944    0.061334688    0.041067143    0.0067553685 
     21200         124   0.038978897    0.048428326    0.032609767    0.002987054  
     21300         124   0.034892855    0.043351729    0.029796035    0.0028836044 
     21400         124   0.027987312    0.034772115    0.024961804    0.0020757417 
     21500         124   0.027866799    0.034622387    0.024544285    0.0022141081 
     21600         124   0.031798124    0.03950676     0.026990991    0.0029205631 
     21700         124   0.028602028    0.035535853    0.024613916    0.0019071187 
     21800         124   0.02392095     0.029719968    0.021375566    0.0037206994 
     21900         124   0.021052759    0.026156458    0.018891094    0.0019720652 
     22000         124   0.021319014    0.02648726     0.018909878    0.0028615996 
     22100         124   0.020055212    0.024917082    0.018085748    0.0023851299 
     22200         124   0.018793089    0.023348989    0.016963094    0.0022757005 
     22300         124   0.016977161    0.021092836    0.015304418    0.0016554441 
     22400         124   0.015849725    0.019692082    0.014145879    0.0020250843 
     22500         124   0.015613826    0.019398996    0.013776924    0.0016671461 
     22600         124   0.013462193    0.016725755    0.012286107    0.0017367952 
     22700         124   0.014095308    0.017512353    0.012775817    0.0016005324 
     22800         124   0.013452571    0.0167138      0.011927398    0.0015945287 
     22900         124   0.012164614    0.015113611    0.010850513    0.0015615554 
     23000         124   0.011772932    0.014626976    0.010556258    0.0013852698 
     23100         124   0.010366264    0.012879298    0.0094145225   0.001237221  
     23200         124   0.010010793    0.012437651    0.0091002829   0.0014931644 
     23300         124   0.010306031    0.012804463    0.0092719459   0.0014469091 
     23400         124   0.008745607    0.010865754    0.0079570142   0.0015845683 
     23500         124   0.0086765414   0.010779945    0.0078589713   0.0013914499 
     23600         124   0.0070006892   0.0086978259   0.0064528197   0.0017966242 
     23700         124   0.006672916    0.0082905926   0.0061215608   0.0015365522 
     23800         124   0.006691431    0.0083135961   0.0058619621   0.0014894378 
     23900         124   0.0052552945   0.0065293053   0.0048581791   0.0022191745 
     24000         124   0.0052357287   0.0065049963   0.0047004724   0.0012350479 
     24100         124   0.004122942    0.0051224431   0.0038690216   0.0012154987 
     24200         124   0.0034132505   0.0042407052   0.0031873364   0.0013002849 
     24300         124   0.0030558072   0.0037966089   0.002835608    0.0011667099 
     24400         124   0.0028489372   0.0035395887   0.0026413286   0.0013224316 
     24500         124   0.0024182307   0.0030044685   0.0022771754   0.0011565831 
     24600         124   0.002198385    0.0027313269   0.0020761951   0.0014617314 
     24700         124   0.0018979689   0.0023580826   0.0018190569   0.0011869789 
     24800         124   0.0016347285   0.0020310264   0.0015536618   0.0015119345 
     24900         124   0.0014705558   0.0018270541   0.0013814459   0.0011445587 
     25000         124   0.0014193502   0.0017634351   0.0012892443   0.0011279799 
Loop time of 0.180861 on 1 procs for 5000 steps with 124 atoms

Performance: 11942849.088 tau/day, 27645.484 timesteps/s, 3.428 Matom-step/s
99.7% CPU use with 1 MPI tasks x 1 OpenMP threads

MPI task timing breakdown:
Section |  min time  |  avg time  |  max time  |%varavg| %total
---------------------------------------------------------------
Pair    | 0.1639     | 0.1639     | 0.1639     |   0.0 | 90.62
Neigh   | 0.0077145  | 0.0077145  | 0.0077145  |   0.0 |  4.27
Comm    | 0.00039534 | 0.00039534 | 0.00039534 |   0.0 |  0.22
Output  | 0.00029654 | 0.00029654 | 0.00029654 |   0.0 |  0.16
Modify  | 0.0066878  | 0.0066878  | 0.0066878  |   0.0 |  3.70
Other   |            | 0.001863   |            |       |  1.03

Nlocal:            124 ave         124 max         124 min
Histogram: 1 0 0 0 0 0 0 0 0 0
Nghost:              0 ave           0 max           0 min
Histogram: 1 0 0 0 0 0 0 0 0 0
Neighs:              0 ave           0 max           0 min
Histogram: 1 0 0 0 0 0 0 0 0 0

Total # of neighbors = 0
Ave neighs/atom = 0
Neighbor list builds = 194
Dangerous builds = 0

Total wall time: 0:00:01
