LAMMPS (4 Jul 2026 - Development - patch_4Jul2026-197-g34022a802c)
OMP_NUM_THREADS environment is not set. Defaulting to 1 thread.
  using 1 OpenMP thread(s) per MPI task
# pouring spheres into box made of triangles

units           lj
atom_style      sphere
boundary        f f f
dimension       3
comm_modify     vel yes

region          box block -7 7 -7 7 0 9 units box
create_box      2 box   # simply for dump_modify to color lines = green
Created orthogonal box = (-7 -7 0) to (7 7 9)
  1 by 1 by 1 MPI processor grid

pair_style      granular
pair_coeff      * * hooke 4000.0 100.0                     tangential linear_history 1000.0 1.0 0.5                     damping mass_velocity

neighbor        0.3 bin
neigh_modify    delay 0 every 1 check yes

molecule        tris surf.tri
Read molecule template tris:
LAMMPS data file for tri plane
  1 molecules
  0 fragments
  0 bodies
  0 atoms with max type 0
  0 bonds with max type 0
  0 angles with max type 0
  0 dihedrals with max type 0
  0 impropers with max type 0
  4 triangles

fix             20 all surface/global input mol tris                 model * * granular hooke 4000.0 100.0                     tangential linear_history 1000.0 1.0 0.5                     damping mass_velocity
Fix surface/global triangle creation:
  4 tris
  8 tri edges
  5 tri corner points
  4 edge connections
  2 corner point connections
  4 free edges
  0 free corner points
  8.48528137423857 min edge length
  12 max edge length
  36 min tri area
  36 max tri area

fix             2 all nve/sphere
fix             3 all gravity 1.0 vector 0 0 -1

region          slab block -2 2 -2 2 7 9 units box
fix             ins all pour 100 1 4767548 vol 0.4 10                 diam one 1.0 region slab ignore

region          zcylinder cylinder z 0 0 7.0 INF INF units box
fix             wall all wall/gran/region granular hooke 4000.0 100.0                          tangential linear_history 1000.0 1.0 0.5                          damping mass_velocity                          region zcylinder

timestep        0.005

compute         1 all temp
compute_modify  1 dynamic/dof yes

compute         2 all temp/sphere
compute_modify  2 dynamic/dof yes

thermo          100
thermo_style    custom step atoms temp c_1 c_2 press
thermo_modify   lost ignore
compute_modify  thermo_temp dynamic/dof yes

#dump           2 all image 100 tmp.image.*.ppm type type #               zoom 1.4 adiam 1.0 fix 20 type 2 0.5
#dump_modify        2 pad 5

run             5000
Generated 0 of 1 mixed pair_coeff terms from geometric mixing rule
Particle insertion: 24 every 400 steps, 100 by step 1601
Neighbor list info ...
  update: every = 1 steps, delay = 0 steps, check = yes
  max neighbors/atom: 2000, page size: 100000
  master list distance cutoff = 1.3
  ghost atom cutoff = 1.3
  binsize = 0.65, bins = 22 22 14
  1 neighbor lists, perpetual/occasional/extra = 1 0 0
  (1) pair granular, perpetual
      attributes: half, newton on, size, history
      pair build: half/size/bin/atomonly/newton
      stencil: half/bin/3d
      bin: standard
Per MPI rank memory allocation (min/avg/max) = 11.53 | 11.53 | 11.53 Mbytes
   Step        Atoms         Temp           c_1            c_2           Press     
         0           0   0              0              0              0            
       100          24   0.43156905     0.43156905     0.21119336     0.005627034  
       200          24   0.73291569     0.73291569     0.35866087     0.009556157  
       300          24   1.125323       1.125323       0.55068998     0.014672579  
       400          24   1.608791       1.608791       0.78728068     0.020976299  
WARNING: Fewer insertions than requested (src/GRANULAR/fix_pour.cpp:691)
       500          44   1.0436449      1.0436449      0.51675284     0.025440323  
       600          44   0.94588576     0.94588576     0.46980918     0.023057306  
       700          44   0.99723279     0.99723279     0.50102491     0.032319006  
       800          44   0.84127806     0.84127806     0.43234969     0.023327224  
       900          68   0.69776727     0.69776727     0.35867213     0.026910819  
      1000          68   0.78689153     0.78689153     0.4059512      0.029887604  
      1100          68   0.7080973      0.7080973      0.37060883     0.027262487  
      1200          68   0.60038428     0.60038428     0.3185384      0.059151992  
WARNING: Fewer insertions than requested (src/GRANULAR/fix_pour.cpp:691)
      1300          88   0.48090618     0.48090618     0.25720169     0.028181806  
      1400          88   0.53720904     0.53720904     0.28593154     0.033696449  
      1500          88   0.53410901     0.53410901     0.28416505     0.026415258  
      1600          88   0.48829853     0.48829853     0.26171208     0.025075777  
      1700          99   0.3940267      0.3940267      0.21222418     0.027574036  
      1800          99   0.31066255     0.31066255     0.17015018     0.019157026  
      1900          99   0.28443731     0.28443731     0.15704811     0.01665746   
      2000          99   0.23289429     0.23289429     0.13115729     0.013315139  
      2100          99   0.27358808     0.27358808     0.14869868     0.023474267  
      2200          99   0.17762775     0.17762775     0.10068523     0.031152251  
      2300          98   0.13725498     0.13725498     0.080298282    0.0076766636 
      2400          98   0.068785288    0.068785288    0.044676101    0.0087007529 
      2500          98   0.045877868    0.045877868    0.032563552    0.0030462065 
      2600          98   0.030482524    0.030482524    0.022802111    0.0020766491 
      2700          98   0.025420286    0.025420286    0.018665286    0.001881294  
      2800          98   0.017102526    0.017102526    0.013309507    0.00072125201
      2900          98   0.011985674    0.011985674    0.0096850904   0.0025040217 
      3000          98   0.010801633    0.010801633    0.0083375453   0.0014678464 
      3100          98   0.0077461364   0.0077461364   0.0061266502   0.0024912872 
      3200          98   0.0059452724   0.0059452724   0.0047402754   0.00090753834
      3300          98   0.0037910456   0.0037910456   0.0031181744   0.0037633023 
      3400          98   0.003182427    0.003182427    0.002723212    0.0026834578 
      3500          98   0.0023983944   0.0023983944   0.0021679701   0.0019958895 
      3600          98   0.0018299002   0.0018299002   0.0017177223   0.00032165476
      3700          98   0.0015976394   0.0015976394   0.0015281613   0.00257789   
      3800          98   0.0012892344   0.0012892344   0.001318846    0.00065601434
      3900          98   0.0011210503   0.0011210503   0.0011974278   0.00046486771
      4000          98   0.00099522105  0.00099522105  0.001015922    0.00040974079
      4100          98   0.00088083398  0.00088083398  0.00090901848  0.00036262436
      4200          98   0.00079867954  0.00079867954  0.00083181943  0.00028159829
      4300          98   0.00062680945  0.00062680945  0.00068232656  0.00024911615
      4400          98   0.00054933768  0.00054933768  0.00061851856  0.00076732636
      4500          98   0.00052036125  0.00052036125  0.00058126438  0.00043549493
      4600          98   0.0005113508   0.0005113508   0.0005742165   0.00035376391
      4700          98   0.00051177633  0.00051177633  0.00058709002  0.00042073372
      4800          98   0.00051666225  0.00051666225  0.0006046707   0.000365963  
      4900          98   0.0005147443   0.0005147443   0.0006126261   0.00029688373
      5000          98   0.00050747526  0.00050747526  0.00060918049  0.00033537036
Loop time of 0.114808 on 1 procs for 5000 steps with 98 atoms

Performance: 18814032.875 tau/day, 43551.002 timesteps/s, 4.268 Matom-step/s
99.7% CPU use with 1 MPI tasks x 1 OpenMP threads

MPI task timing breakdown:
Section |  min time  |  avg time  |  max time  |%varavg| %total
---------------------------------------------------------------
Pair    | 0.0084819  | 0.0084819  | 0.0084819  |   0.0 |  7.39
Neigh   | 0.0030429  | 0.0030429  | 0.0030429  |   0.0 |  2.65
Comm    | 0.00040495 | 0.00040495 | 0.00040495 |   0.0 |  0.35
Output  | 0.0003452  | 0.0003452  | 0.0003452  |   0.0 |  0.30
Modify  | 0.10087    | 0.10087    | 0.10087    |   0.0 | 87.86
Other   |            | 0.00166    |            |       |  1.45

Nlocal:             98 ave          98 max          98 min
Histogram: 1 0 0 0 0 0 0 0 0 0
Nghost:              0 ave           0 max           0 min
Histogram: 1 0 0 0 0 0 0 0 0 0
Neighs:            157 ave         157 max         157 min
Histogram: 1 0 0 0 0 0 0 0 0 0

Total # of neighbors = 157
Ave neighs/atom = 1.6020408
Neighbor list builds = 317
Dangerous builds = 0

fix_modify      20 move * rotate 0 0 0 0 0 1 25
Fix_modify move:
  turned on motion for 4 surfs
run             5000
Generated 0 of 1 mixed pair_coeff terms from geometric mixing rule
Per MPI rank memory allocation (min/avg/max) = 17.22 | 17.22 | 17.22 Mbytes
   Step        Atoms         Temp           c_1            c_2           Press     
      5000          98   0.00050747526  0.00050747526  0.00060918049  0.00034702659
      5100          96   0.023306504    0.023306504    0.023962208    0.0074179744 
      5200          94   0.039395924    0.039395924    0.046048347    0.0039246841 
      5300          91   0.044213851    0.044213851    0.049774756    0.0023530469 
      5400          90   0.048022375    0.048022375    0.05056761     0.0025456415 
      5500          88   0.050118433    0.050118433    0.05280955     0.0026202517 
      5600          86   0.051384356    0.051384356    0.052607602    0.0025435559 
      5700          85   0.052752062    0.052752062    0.053315997    0.0040970426 
      5800          83   0.052022118    0.052022118    0.052093987    0.0024308664 
      5900          82   0.052572017    0.052572017    0.051953653    0.0024543554 
      6000          80   0.053326029    0.053326029    0.05268295     0.0023881839 
      6100          79   0.053669966    0.053669966    0.053352492    0.0023734058 
      6200          76   0.051699599    0.051699599    0.05208015     0.0021982675 
      6300          75   0.0515325      0.0515325      0.051759234    0.0021938979 
      6400          73   0.051079167    0.051079167    0.050963561    0.0021724473 
      6500          71   0.050585349    0.050585349    0.049213588    0.0030707579 
      6600          69   0.050028831    0.050028831    0.047884036    0.0019289267 
      6700          69   0.0500948      0.0500948      0.048047848    0.001931336  
      6800          69   0.049766642    0.049766642    0.048245961    0.0020633569 
      6900          68   0.049283073    0.049283073    0.047957784    0.0018661265 
      7000          67   0.048566812    0.048566812    0.047786812    0.001829722  
      7100          66   0.048642582    0.048642582    0.046890848    0.0021039013 
      7200          65   0.050203194    0.050203194    0.048229217    0.0018322506 
      7300          64   0.050368737    0.050368737    0.048686328    0.0017988835 
      7400          63   0.049983629    0.049983629    0.048646127    0.001802782  
      7500          63   0.051463374    0.051463374    0.050482782    0.0018089133 
      7600          61   0.052238113    0.052238113    0.050341249    0.0029590738 
      7700          59   0.064268045    0.064268045    0.053886329    0.0033651727 
      7800          58   0.069660709    0.069660709    0.057298846    0.0022813175 
      7900          57   0.059772161    0.059772161    0.052500949    0.0018978154 
      8000          56   0.055099574    0.055099574    0.050695358    0.0017186593 
      8100          55   0.054307543    0.054307543    0.050528525    0.0016628612 
      8200          54   0.053567939    0.053567939    0.049867195    0.0016382523 
      8300          53   0.054373611    0.054373611    0.051785054    0.0016036144 
      8400          52   0.064089409    0.064089409    0.055879507    0.0018533977 
      8500          50   0.056343303    0.056343303    0.051769581    0.0015650918 
      8600          49   0.053917706    0.053917706    0.051752256    0.0014673959 
      8700          48   0.053860461    0.053860461    0.052231126    0.0025544303 
      8800          47   0.05373614     0.05373614     0.052062683    0.0015185561 
      8900          46   0.052850841    0.052850841    0.052567106    0.0013485216 
      9000          44   0.052277385    0.052277385    0.0513204      0.0012744175 
      9100          44   0.052352379    0.052352379    0.05271016     0.0012760825 
      9200          44   0.052766528    0.052766528    0.052699743    0.0012863913 
      9300          43   0.052234405    0.052234405    0.053190057    0.0012440467 
      9400          43   0.051750173    0.051750173    0.054218714    0.0012324848 
      9500          43   0.052336193    0.052336193    0.055367329    0.001764378  
      9600          42   0.052199929    0.052199929    0.054920876    0.0012828591 
      9700          42   0.050767113    0.050767113    0.056169163    0.0011799612 
      9800          41   0.050765729    0.050765729    0.056188546    0.0011537478 
      9900          40   0.050783371    0.050783371    0.056065544    0.0011240365 
     10000          40   0.050256715    0.050256715    0.057518308    0.0011111179 
Loop time of 0.0990097 on 1 procs for 5000 steps with 40 atoms

Performance: 21816051.117 tau/day, 50500.118 timesteps/s, 2.020 Matom-step/s
99.6% CPU use with 1 MPI tasks x 1 OpenMP threads

MPI task timing breakdown:
Section |  min time  |  avg time  |  max time  |%varavg| %total
---------------------------------------------------------------
Pair    | 0.0050073  | 0.0050073  | 0.0050073  |   0.0 |  5.06
Neigh   | 0.0024908  | 0.0024908  | 0.0024908  |   0.0 |  2.52
Comm    | 0.00036461 | 0.00036461 | 0.00036461 |   0.0 |  0.37
Output  | 0.00027461 | 0.00027461 | 0.00027461 |   0.0 |  0.28
Modify  | 0.089393   | 0.089393   | 0.089393   |   0.0 | 90.29
Other   |            | 0.001479   |            |       |  1.49

Nlocal:             40 ave          40 max          40 min
Histogram: 1 0 0 0 0 0 0 0 0 0
Nghost:              0 ave           0 max           0 min
Histogram: 1 0 0 0 0 0 0 0 0 0
Neighs:             22 ave          22 max          22 min
Histogram: 1 0 0 0 0 0 0 0 0 0

Total # of neighbors = 22
Ave neighs/atom = 0.55
Neighbor list builds = 333
Dangerous builds = 0

fix_modify      20 move * none
Fix_modify move:
  turned off motion for 0 surfs
run             5000
Generated 0 of 1 mixed pair_coeff terms from geometric mixing rule
Per MPI rank memory allocation (min/avg/max) = 17.22 | 17.22 | 17.22 Mbytes
   Step        Atoms         Temp           c_1            c_2           Press     
     10000          40   0.050256715    0.050256715    0.057518308    0.0011111179 
     10100          40   0.019186423    0.019186423    0.017457581    0.00042665008
     10200          40   0.0074736425   0.0074736425   0.0097190087   0.00016523359
     10300          40   0.0055003824   0.0055003824   0.0076626568   9.5621922e-05
     10400          40   0.0045246116   0.0045246116   0.0072224446   0.00010003393
     10500          40   0.0044866695   0.0044866695   0.0072345445   9.9195073e-05
     10600          39   0.0049409211   0.0049409211   0.0061843863   0.00012803889
     10700          39   0.0038436371   0.0038436371   0.0056329817   8.2799438e-05
     10800          39   0.0035487221   0.0035487221   0.005055778    0.00013198009
     10900          39   0.0036152062   0.0036152062   0.0051273321   0.00012185158
     11000          39   0.0034909344   0.0034909344   0.0049302797   0.00011596155
     11100          39   0.0034476704   0.0034476704   0.0045661825   0.00014926894
     11200          39   0.0032090294   0.0032090294   0.0042063614   0.00010413989
     11300          39   0.0025976617   0.0025976617   0.0034749524   0.0001484784 
     11400          39   0.003078464    0.003078464    0.0033839954   0.00022083053
     11500          39   0.0037684641   0.0037684641   0.0034845068   0.00019454063
     11600          39   0.0020089569   0.0020089569   0.002419501    0.00015032686
     11700          38   0.0014376999   0.0014376999   0.0019929271   0.00047902193
     11800          38   0.0012272749   0.0012272749   0.0018009514   0.00027383073
     11900          38   0.0011874901   0.0011874901   0.0018475164   0.00019131538
     12000          38   0.0011661232   0.0011661232   0.001957573    0.00018071252
     12100          38   0.0010889833   0.0010889833   0.0020194048   0.00017623387
     12200          38   0.0010871184   0.0010871184   0.0021667956   0.0001771261 
     12300          38   0.0010833039   0.0010833039   0.0023191992   0.00017727338
     12400          38   0.0010816366   0.0010816366   0.0024704091   0.0001729377 
     12500          38   0.0010872793   0.0010872793   0.0026180322   0.00017080954
     12600          38   0.0011014611   0.0011014611   0.0027684896   0.00017079111
     12700          38   0.0011238416   0.0011238416   0.0029230928   0.00017287657
     12800          38   0.0011509319   0.0011509319   0.0030851133   0.00016607522
     12900          38   0.0011787205   0.0011787205   0.0032578498   0.00017023164
     13000          38   0.001235865    0.001235865    0.0034569347   0.00017165506
     13100          37   0.0012344586   0.0012344586   0.0020196337   0.00017424301
     13200          37   0.0012315077   0.0012315077   0.0021719518   0.00017258788
     13300          37   0.0012074197   0.0012074197   0.0023282901   0.00016986192
     13400          37   0.0011645558   0.0011645558   0.0024853674   0.00016950769
     13500          37   0.0011073364   0.0011073364   0.0026337265   0.00017735954
     13600          37   0.0011221563   0.0011221563   0.0028255876   0.00017311354
     13700          37   0.0013058197   0.0013058197   0.0031161517   0.00037022663
     13800          37   0.00092159173  0.00092159173  0.00298984     0.00016440505
     13900          37   0.00092287389  0.00092287389  0.0031469298   0.00016472535
     14000          37   0.00095066456  0.00095066456  0.0033161717   0.00016768254
     14100          37   0.00099606012  0.00099606012  0.0034992641   0.00016900853
     14200          37   0.0011025328   0.0011025328   0.0037124597   0.00016794247
     14300          37   0.0011465206   0.0011465206   0.0039034315   0.00016928817
     14400          36   0.0011892791   0.0011892791   0.0019523715   0.00016931193
     14500          36   0.0012386288   0.0012386288   0.0021537009   0.00017477583
     14600          36   0.0011893736   0.0011893736   0.0020601625   0.00021097305
     14700          36   0.0012336026   0.0012336026   0.0022903942   0.00020492792
     14800          36   0.0012315168   0.0012315168   0.0025616053   0.00017029018
     14900          36   0.0011987754   0.0011987754   0.0028385693   0.00017069284
     15000          36   0.0011383807   0.0011383807   0.003113085    0.00017196286
Loop time of 0.0592663 on 1 procs for 5000 steps with 36 atoms

Performance: 36445640.896 tau/day, 84364.909 timesteps/s, 3.037 Matom-step/s
99.7% CPU use with 1 MPI tasks x 1 OpenMP threads

MPI task timing breakdown:
Section |  min time  |  avg time  |  max time  |%varavg| %total
---------------------------------------------------------------
Pair    | 0.0029816  | 0.0029816  | 0.0029816  |   0.0 |  5.03
Neigh   | 0.0003141  | 0.0003141  | 0.0003141  |   0.0 |  0.53
Comm    | 0.00028368 | 0.00028368 | 0.00028368 |   0.0 |  0.48
Output  | 0.0002888  | 0.0002888  | 0.0002888  |   0.0 |  0.49
Modify  | 0.054488   | 0.054488   | 0.054488   |   0.0 | 91.94
Other   |            | 0.0009097  |            |       |  1.53

Nlocal:             36 ave          36 max          36 min
Histogram: 1 0 0 0 0 0 0 0 0 0
Nghost:              0 ave           0 max           0 min
Histogram: 1 0 0 0 0 0 0 0 0 0
Neighs:             27 ave          27 max          27 min
Histogram: 1 0 0 0 0 0 0 0 0 0

Total # of neighbors = 27
Ave neighs/atom = 0.75
Neighbor list builds = 49
Dangerous builds = 0
Total wall time: 0:00:00
