LAMMPS (4 Jul 2026 - Development - patch_4Jul2026-197-g34022a802c)
OMP_NUM_THREADS environment is not set. Defaulting to 1 thread.
  using 1 OpenMP thread(s) per MPI task
# pouring spheres into box made of triangles

units           lj
atom_style      tri
atom_modify     map array
boundary        f f f
dimension       3
comm_modify     vel yes cutoff 12.5

read_data       data.tribox
Reading data file ...
  orthogonal box = (-9 -9 -9) to (9 9 9)
  1 by 2 by 2 MPI processor grid
  reading atoms ...
  24 atoms
  24 triangles
  read_data CPU = 0.001 seconds

pair_style      hybrid granular surf/granular
pair_coeff      1 1 granular hooke 4000.0 100.0                          tangential linear_history 1000.0 1.0 0.5                          damping mass_velocity
pair_coeff      1 2 surf/granular hooke 4000.0 100.0                          tangential linear_history 1000.0 1.0 0.5                          damping mass_velocity
pair_coeff      2 2 none

group           sphere type 1
0 atoms in group sphere
group           tri type 2
24 atoms in group tri

fix             fsl all surface/local
Connecting line/tri particles ...
Fix surface/local triangle creation:
  24 tris
  36 tri edges
  14 tri corner points
  36 edge connections
  84 corner point connections
  0 free edges
  0 free corner points
  8.485281374238568 min edge length
  12.000000000000005 max edge length
  35.999999999999986 min tri area
  36.000000000000036 max tri area

neighbor        0.3 bin
neigh_modify    delay 0 every 1 check yes

fix             2 sphere nve/sphere
fix             3 sphere gravity 1.0 vector 0 0 -1

region          slab block -2 2 -2 2 -2 2 units box
fix             ins sphere pour 100 1 4767548 vol 0.4 10                 diam one 1.0 region slab ignore

timestep        0.005

compute         1 sphere temp
compute_modify  1 dynamic/dof yes

compute         2 sphere temp/sphere
compute_modify  2 dynamic/dof yes

thermo          100
thermo_style    custom step atoms temp c_1 c_2 press
thermo_modify   lost ignore
compute_modify  thermo_temp dynamic/dof yes

#dump           2 all image 100 tmp.image.*.ppm type type #               zoom 1.4 adiam 1.0 tri type 2 0.2
#dump_modify        2 pad 5

run             5000
Generated 0 of 1 mixed pair_coeff terms from geometric mixing rule
Particle insertion: 48 every 566 steps, 100 by step 1133
Neighbor list info ...
  update: every = 1 steps, delay = 0 steps, check = yes
  max neighbors/atom: 2000, page size: 100000
  master list distance cutoff = 7.1245553
  ghost atom cutoff = 12.5
  binsize = 3.5622777, bins = 6 6 6
  3 neighbor lists, perpetual/occasional/extra = 3 0 0
  (1) pair granular, perpetual, skip from (3)
      attributes: half, newton on, size, history, off2on
      pair build: skip/size/off2on
      stencil: none
      bin: none
  (2) pair surf/granular, perpetual, skip from (3)
      attributes: half, newton on, size, history, onesided, off2on
      pair build: skip/size/off2on/oneside
      stencil: none
      bin: none
  (3) neighbor class addition, perpetual
      attributes: half, newton off, size, history
      pair build: half/size/bin/atomonly/newtoff
      stencil: full/bin/3d
      bin: standard
Per MPI rank memory allocation (min/avg/max) = 19.01 | 19.01 | 19.01 Mbytes
   Step        Atoms         Temp           c_1            c_2           Press     
         0          24   0              0              0              0            
WARNING: Fewer insertions than requested (src/GRANULAR/fix_pour.cpp:691)
       100          54   0.43980579     0.803783       0.39507978     0.0039968633 
       200          54   0.65485258     1.1967995      0.5882574      0.0059511637 
       300          54   0.70118095     1.2814686      0.62987441     0.0063721863 
       400          54   0.45325721     0.82836663     0.40994817     0.0041545596 
       500          54   0.45475589     0.83110558     0.414729       0.0059300973 
WARNING: Fewer insertions than requested (src/GRANULAR/fix_pour.cpp:691)
       600          88   0.36933761     0.51003765     0.26258869     0.0051564871 
       700          88   0.42058223     0.58080404     0.29751792     0.0091770621 
       800          88   0.46104238     0.63667757     0.32644388     0.0070645303 
       900          88   0.41290353     0.57020011     0.29762919     0.0093938303 
      1000          88   0.34695571     0.47912932     0.25178552     0.0056281583 
      1100          88   0.33424829     0.46158097     0.2466537      0.0060019254 
WARNING: Fewer insertions than requested (src/GRANULAR/fix_pour.cpp:691)
      1200         123   0.3614775      0.4500026      0.23713789     0.019109242  
      1300         123   0.34569407     0.43035384     0.22891578     0.0079291792 
      1400         123   0.33079906     0.41181107     0.21811838     0.0089493183 
      1500         123   0.28224178     0.35136222     0.18849775     0.013185161  
      1600         123   0.23235374     0.2892567      0.1586093      0.0092046972 
      1700         124   0.1803208      0.22403494     0.12490013     0.0078686044 
      1800         124   0.10284771     0.12778048     0.077345781    0.0051240968 
      1900         124   0.049671325    0.061712858    0.040709047    0.0046757039 
      2000         124   0.048746634    0.060564       0.039225806    0.0037815099 
      2100         124   0.03710245     0.046096984    0.030465389    0.0031444979 
      2200         124   0.036513386    0.045365116    0.028842604    0.0032279135 
      2300         124   0.020053931    0.02491549     0.01813954     0.0020774094 
      2400         124   0.015836999    0.019676272    0.01444169     0.0026245136 
      2500         124   0.010425187    0.012952505    0.0099642738   0.0027241837 
      2600         124   0.008613514    0.010701639    0.0081877152   0.0025520868 
      2700         124   0.0056587316   0.0070305453   0.005884261    0.0018643828 
      2800         124   0.0044730862   0.0055574707   0.0047360038   0.0022749968 
      2900         124   0.0032427206   0.0040288347   0.0037329091   0.0021358294 
      3000         124   0.0027553784   0.0034233489   0.0031069035   0.0023668909 
      3100         124   0.0026956775   0.0033491751   0.0028782161   0.0018433959 
      3200         124   0.0020035156   0.0024892164   0.0023200285   0.0015251663 
      3300         124   0.001841208    0.0022875615   0.0020495088   0.0016859375 
      3400         124   0.0021923966   0.0027238867   0.0021795956   0.0015537005 
      3500         124   0.001689698    0.0020993217   0.0017948605   0.0026738231 
      3600         124   0.0012088241   0.0015018724   0.0014530336   0.0015287236 
      3700         124   0.0010395889   0.0012916104   0.0012923585   0.0015977048 
      3800         124   0.00083444802  0.0010367385   0.001105349    0.0015472851 
      3900         124   0.00071272925  0.00088551209  0.00098194306  0.0016360029 
      4000         124   0.00064097318  0.00079636061  0.00090940695  0.0015672201 
      4100         124   0.0005774792   0.00071747416  0.00083566189  0.0015410418 
      4200         124   0.00055383337  0.00068809601  0.00081012723  0.0015633879 
      4300         124   0.00050131101  0.00062284095  0.00075507972  0.001517263  
      4400         124   0.00044638724  0.00055460233  0.00070484016  0.0015199831 
      4500         124   0.00040716503  0.0005058717   0.00066038838  0.0015131465 
      4600         124   0.00039009926  0.00048466878  0.00064039861  0.0015317719 
      4700         124   0.00037577341  0.00046686999  0.00062087189  0.0015044989 
      4800         124   0.00036727383  0.00045630991  0.0006109235   0.0015028471 
      4900         124   0.00035776441  0.00044449518  0.00059980027  0.0015044083 
      5000         124   0.00032676221  0.00040597729  0.00056594483  0.0015038187 
Loop time of 0.120367 on 4 procs for 5000 steps with 124 atoms

Performance: 17945092.242 tau/day, 41539.565 timesteps/s, 5.151 Matom-step/s
96.5% CPU use with 4 MPI tasks x 1 OpenMP threads

MPI task timing breakdown:
Section |  min time  |  avg time  |  max time  |%varavg| %total
---------------------------------------------------------------
Pair    | 0.0018522  | 0.035801   | 0.073336   |  18.0 | 29.74
Neigh   | 0.0012645  | 0.0027644  | 0.0042808  |   2.7 |  2.30
Comm    | 0.03023    | 0.070562   | 0.10719    |  13.5 | 58.62
Output  | 0.00033384 | 0.00038673 | 0.0004966  |   0.0 |  0.32
Modify  | 0.0031808  | 0.0051165  | 0.0073122  |   2.5 |  4.25
Other   |            | 0.005737   |            |       |  4.77

Nlocal:             31 ave          55 max           6 min
Histogram: 2 0 0 0 0 0 0 0 0 2
Nghost:             93 ave         118 max          69 min
Histogram: 2 0 0 0 0 0 0 0 0 2
Neighs:              0 ave           0 max           0 min
Histogram: 4 0 0 0 0 0 0 0 0 0

Total # of neighbors = 0
Ave neighs/atom = 0
Neighbor list builds = 270
Dangerous builds = 0

fix             1 tri move rotate 0 0 0 0 0 1 25
run             5000
Generated 0 of 1 mixed pair_coeff terms from geometric mixing rule
Per MPI rank memory allocation (min/avg/max) = 19.99 | 20 | 20.01 Mbytes
   Step        Atoms         Temp           c_1            c_2           Press     
      5000         124   0.00032676221  0.00040597729  0.00056594483  0.0015035487 
      5100         124   5.2336152      0.13222866     0.075064797    0.11672251   
      5200         124   5.2433351      0.1443049      0.084692974    0.11393125   
      5300         124   5.2516407      0.15462392     0.087188622    0.11395412   
      5400         124   5.2659817      0.17244155     0.093501558    0.11475413   
      5500         124   5.278911       0.18850521     0.099373299    0.11436979   
      5600         124   5.2882162      0.20006629     0.10415873     0.11488826   
      5700         124   5.2950933      0.20861052     0.10805133     0.11350396   
      5800         124   5.298952       0.21340472     0.11063786     0.11359386   
      5900         124   5.3136026      0.23160697     0.11878074     0.11429086   
      6000         124   5.3179594      0.23701992     0.12136009     0.11628595   
      6100         124   5.3278973      0.24936698     0.12724419     0.11458845   
      6200         124   5.3318658      0.25429755     0.12973086     0.11698106   
      6300         124   5.3371034      0.2608049      0.13286389     0.11588576   
      6400         124   5.3396509      0.26396991     0.13462481     0.11559785   
      6500         124   5.3477418      0.27402224     0.13945192     0.11635881   
      6600         124   5.3540286      0.28183314     0.14313882     0.116165     
      6700         124   5.3628267      0.29276416     0.14856628     0.11696338   
      6800         124   5.3663929      0.29719494     0.15063196     0.11645756   
      6900         124   5.3731098      0.30554017     0.15422544     0.11908551   
      7000         124   5.3780997      0.31173969     0.15711938     0.11741709   
      7100         124   5.3811588      0.3155404      0.15878237     0.11817673   
      7200         124   5.3829622      0.31778097     0.15977702     0.11765865   
      7300         124   5.3861128      0.32169535     0.16146536     0.11758959   
      7400         124   5.3895394      0.32595271     0.1635508      0.11858887   
      7500         124   5.3902605      0.32684853     0.16392363     0.11751868   
      7600         124   5.3923802      0.32948209     0.16514631     0.11797197   
      7700         124   5.3962087      0.33423875     0.1675195      0.1194552    
      7800         124   5.3962025      0.33423101     0.16735404     0.11829016   
      7900         124   5.3980124      0.33647965     0.16843538     0.11824389   
      8000         124   5.3975939      0.33595977     0.16811426     0.11820937   
      8100         124   5.3994595      0.3382776      0.16914113     0.11800587   
      8200         124   5.4006986      0.33981708     0.16989255     0.11880402   
      8300         124   5.3986468      0.33726789     0.1686101      0.11871562   
      8400         124   5.3979757      0.33643417     0.16809309     0.11812956   
      8500         124   5.3997618      0.33865324     0.16919843     0.11801171   
      8600         124   5.4005781      0.33966742     0.16970375     0.11858587   
      8700         124   5.3991829      0.33793397     0.16885403     0.11860743   
      8800         124   5.4011495      0.34037726     0.17007815     0.11860509   
      8900         124   5.4012596      0.34051412     0.17017544     0.11740175   
      9000         124   5.4001061      0.33908093     0.16945716     0.1178526    
      9100         124   5.3999489      0.33888563     0.1694018      0.11756153   
      9200         124   5.40048        0.33954553     0.16971964     0.11824984   
      9300         124   5.4004005      0.33944675     0.16963558     0.11810382   
      9400         124   5.401738       0.34110851     0.17047776     0.11786542   
      9500         124   5.4006877      0.33980363     0.16983904     0.11818348   
      9600         124   5.4008461      0.34000031     0.16991765     0.11818896   
      9700         124   5.4011309      0.34035423     0.17012032     0.11736797   
      9800         124   5.4032434      0.34297883     0.17147974     0.11821296   
      9900         124   5.402451       0.34199429     0.17097739     0.11777301   
     10000         124   5.4022403      0.3417325      0.17083804     0.11798269   
Loop time of 0.20126 on 4 procs for 5000 steps with 124 atoms

Performance: 10732397.020 tau/day, 24843.512 timesteps/s, 3.081 Matom-step/s
96.0% CPU use with 4 MPI tasks x 1 OpenMP threads

MPI task timing breakdown:
Section |  min time  |  avg time  |  max time  |%varavg| %total
---------------------------------------------------------------
Pair    | 0.0048036  | 0.071973   | 0.14236    |  25.0 | 35.76
Neigh   | 0.0012983  | 0.0041527  | 0.0071314  |   4.4 |  2.06
Comm    | 0.038831   | 0.11148    | 0.18295    |  21.1 | 55.39
Output  | 0.00038252 | 0.00047365 | 0.00067189 |   0.0 |  0.24
Modify  | 0.0043004  | 0.0068402  | 0.0095335  |   2.7 |  3.40
Other   |            | 0.006336   |            |       |  3.15

Nlocal:             31 ave          54 max           8 min
Histogram: 2 0 0 0 0 0 0 0 0 2
Nghost:             93 ave         116 max          70 min
Histogram: 2 0 0 0 0 0 0 0 0 2
Neighs:              0 ave           0 max           0 min
Histogram: 4 0 0 0 0 0 0 0 0 0

Total # of neighbors = 0
Ave neighs/atom = 0
Neighbor list builds = 315
Dangerous builds = 0

unfix           1
set             type 1 angmom 0.0 0.0 0.0
Setting atom values ...
  100 settings made for angmom
velocity        tri set 0.0 0.0 0.0
run             5000
Generated 0 of 1 mixed pair_coeff terms from geometric mixing rule
Per MPI rank memory allocation (min/avg/max) = 19.12 | 19.13 | 19.14 Mbytes
   Step        Atoms         Temp           c_1            c_2           Press     
     10000         124   0.27505299     0.3417325      0.17083804     0.011172967  
     10100         124   0.1026135      0.12748951     0.071930188    0.012073901  
     10200         124   0.066911554    0.083132537    0.057487838    0.0055933526 
     10300         124   0.051473916    0.063952441    0.048830626    0.0055530458 
     10400         124   0.039261568    0.048779524    0.039357881    0.0025155176 
     10500         124   0.032296124    0.040125487    0.035301519    0.0033841861 
     10600         124   0.027273782    0.033885608    0.032346335    0.00273913   
     10700         124   0.023615909    0.029340978    0.029510244    0.0025210819 
     10800         124   0.020774193    0.025810361    0.027519122    0.0025655912 
     10900         124   0.018919809    0.02350643     0.025622065    0.0020777496 
     11000         124   0.017869074    0.022200971    0.023682243    0.0020623469 
     11100         124   0.015386142    0.019116115    0.02135767     0.0027244357 
     11200         124   0.014335604    0.017810902    0.021155091    0.0029700855 
     11300         124   0.013503018    0.016776476    0.020992292    0.0019931045 
     11400         124   0.01319843     0.01639805     0.021125726    0.0019403161 
     11500         124   0.012158112    0.015105533    0.019161809    0.0024134138 
     11600         124   0.011924422    0.014815191    0.01911501     0.001865792  
     11700         124   0.011312469    0.014054886    0.019606505    0.0024189682 
     11800         124   0.011267072    0.013998483    0.019506221    0.0019353596 
     11900         124   0.010730948    0.01333239     0.018499161    0.0020124706 
     12000         124   0.010258318    0.012745183    0.018779124    0.0020944975 
     12100         124   0.010267384    0.012756447    0.019679704    0.0018305692 
     12200         124   0.010053458    0.01249066     0.019935661    0.0019898661 
     12300         124   0.0093354473   0.011598586    0.019012775    0.0024922772 
     12400         124   0.0092311018   0.011468945    0.018317064    0.0027548017 
     12500         124   0.0092663905   0.011512788    0.017915134    0.0028451253 
     12600         124   0.0095639469   0.011882479    0.019488603    0.0017223562 
     12700         124   0.0091745564   0.011398691    0.019262135    0.002034367  
     12800         124   0.0080917093   0.010053336    0.017541066    0.003080379  
     12900         124   0.0073518686   0.0091341398   0.016286605    0.0038467537 
     13000         124   0.0075592356   0.0093917775   0.01658017     0.0021002758 
     13100         124   0.0076244583   0.0094728118   0.017358318    0.0022915101 
     13200         124   0.007249205    0.009006588    0.016859511    0.0025203656 
     13300         124   0.0076015039   0.0094442927   0.017924851    0.0022178294 
     13400         124   0.0067729465   0.0084148729   0.017036783    0.0017440849 
     13500         124   0.0061978369   0.0077003429   0.016156681    0.0024455277 
     13600         124   0.0061283957   0.0076140674   0.016478534    0.0018418317 
     13700         124   0.0063855925   0.0079336149   0.016192222    0.0025609707 
     13800         124   0.0065515226   0.0081397705   0.016360247    0.0028336983 
     13900         124   0.0067518897   0.0083887114   0.017229647    0.0020163332 
     14000         124   0.0062980529   0.0078248536   0.016880485    0.0020141952 
     14100         124   0.0063878679   0.0079364419   0.01704672     0.0017447959 
     14200         124   0.0058800007   0.0073054555   0.015765877    0.0020440191 
     14300         124   0.0058745846   0.0072987263   0.016014536    0.0024502888 
     14400         124   0.0063277575   0.0078617593   0.015360899    0.0016824309 
     14500         124   0.0065147573   0.0080940924   0.015751657    0.0018719031 
     14600         124   0.0063839363   0.0079315572   0.015891486    0.0018656903 
     14700         124   0.0065203999   0.0081011029   0.015841258    0.0019396352 
     14800         124   0.0053525772   0.0066501716   0.014614228    0.0027107172 
     14900         124   0.0054256373   0.0067409434   0.015361799    0.0018500815 
     15000         124   0.0051773973   0.0064325239   0.015325962    0.0016530761 
Loop time of 0.148859 on 4 procs for 5000 steps with 124 atoms

Performance: 14510391.235 tau/day, 33588.869 timesteps/s, 4.165 Matom-step/s
95.2% CPU use with 4 MPI tasks x 1 OpenMP threads

MPI task timing breakdown:
Section |  min time  |  avg time  |  max time  |%varavg| %total
---------------------------------------------------------------
Pair    | 0.00063137 | 0.050585   | 0.1027     |  22.2 | 33.98
Neigh   | 0.00038995 | 0.0013334  | 0.0022742  |   2.5 |  0.90
Comm    | 0.035186   | 0.086883   | 0.13827    |  17.1 | 58.37
Output  | 0.00038826 | 0.00044472 | 0.00054455 |   0.0 |  0.30
Modify  | 0.0012711  | 0.0031265  | 0.0050648  |   3.1 |  2.10
Other   |            | 0.006486   |            |       |  4.36

Nlocal:             31 ave          55 max           8 min
Histogram: 2 0 0 0 0 0 0 0 0 2
Nghost:             93 ave         116 max          69 min
Histogram: 2 0 0 0 0 0 0 0 0 2
Neighs:              0 ave           0 max           0 min
Histogram: 4 0 0 0 0 0 0 0 0 0

Total # of neighbors = 0
Ave neighs/atom = 0
Neighbor list builds = 94
Dangerous builds = 0

fix             1 tri move rotate 0 0 0 1 1 1 25
run             5000
Generated 0 of 1 mixed pair_coeff terms from geometric mixing rule
Per MPI rank memory allocation (min/avg/max) = 19.99 | 20 | 20.01 Mbytes
   Step        Atoms         Temp           c_1            c_2           Press     
     15000         124   0.0051773973   0.0064325239   0.015325962    0.0016433648 
     15100         124   5.2396089      0.13967534     0.086100343    0.12327334   
     15200         124   5.2929362      0.20593045     0.12223184     0.1145446    
     15300         124   5.3081981      0.2248922      0.1320219      0.11872516   
     15400         124   5.3282243      0.24977326     0.1430752      0.11760241   
     15500         124   5.3361131      0.25957451     0.14658116     0.11888992   
     15600         124   5.3456534      0.27142756     0.15198512     0.12131054   
     15700         123   5.4069939      0.29601249     0.15984784     0.12822875   
     15800         123   5.4050536      0.29359703     0.15682494     0.12162543   
     15900         123   5.4400225      0.33712968     0.17593475     0.1334743    
     16000         123   5.4332275      0.32867063     0.17043116     0.11881242   
     16100         123   5.4136347      0.30427961     0.15836113     0.12793946   
     16200         123   5.4124633      0.3028213      0.1557623      0.12046605   
     16300         123   5.4619492      0.36442616     0.18565568     0.13116737   
     16400         123   5.500097       0.41191627     0.21866031     0.16900787   
     16500         123   5.4558323      0.35681126     0.18652923     0.11962264   
     16600         123   5.4322328      0.32743226     0.1686616      0.11977833   
     16700         123   5.4271786      0.3211403      0.16459617     0.13210181   
     16800         123   5.4154113      0.30649127     0.1570143      0.11857592   
     16900         123   5.3993296      0.28647115     0.14753058     0.12013573   
     17000         123   5.4476713      0.34665172     0.17893706     0.12307175   
     17100         123   5.4199578      0.31215116     0.16350343     0.11741615   
     17200         123   5.4124837      0.30284674     0.1601593      0.11761081   
     17300         123   5.4217714      0.31440894     0.16878291     0.11772857   
     17400         122   5.4679004      0.31929814     0.17366409     0.11895854   
     17500         122   5.5229265      0.38793891     0.21099244     0.11757569   
     17600         122   5.5844206      0.46464806     0.25293117     0.11842177   
     17700         122   5.6089323      0.49522446     0.2702615      0.12347537   
     17800         122   5.6219553      0.5114697      0.28006154     0.12483252   
     17900         122   5.637989       0.53147041     0.29287891     0.11851724   
     18000         122   5.6112281      0.4980883      0.27760052     0.12468778   
     18100         122   5.6204007      0.50953046     0.28509489     0.12442317   
     18200         122   5.5898944      0.47147614     0.26644375     0.13248118   
     18300         122   5.568015       0.4441833      0.25380003     0.11745521   
     18400         122   5.5346673      0.40258465     0.23486304     0.12801285   
     18500         122   5.4977672      0.3565546      0.21339353     0.12382148   
     18600         122   5.4767752      0.33036875     0.20607301     0.11849833   
     18700         122   5.4902594      0.3471892      0.22389483     0.11775956   
     18800         122   5.5082758      0.36966326     0.23844113     0.11687811   
     18900         122   5.4943934      0.3523461      0.23282499     0.12353891   
     19000         122   5.4681328      0.31958793     0.20918009     0.11917428   
     19100         121   5.5218184      0.33306425     0.21190869     0.12222883   
     19200         120   5.5663254      0.33419669     0.20881543     0.11571685   
     19300         120   5.5675972      0.33578982     0.20024988     0.12172522   
     19400         120   5.6117815      0.39113642     0.22654467     0.11914609   
     19500         120   5.6077234      0.3860532      0.22090937     0.13263742   
     19600         120   5.59902        0.37515103     0.21217478     0.12425665   
     19700         120   5.6048004      0.38239172     0.21137378     0.12439675   
     19800         120   5.6103535      0.38934773     0.2136333      0.12073052   
     19900         120   5.6039093      0.38127548     0.20801612     0.11909905   
     20000         120   5.6050241      0.38267197     0.20570889     0.12707496   
Loop time of 0.174321 on 4 procs for 5000 steps with 120 atoms

Performance: 12390901.056 tau/day, 28682.641 timesteps/s, 3.442 Matom-step/s
95.4% CPU use with 4 MPI tasks x 1 OpenMP threads

MPI task timing breakdown:
Section |  min time  |  avg time  |  max time  |%varavg| %total
---------------------------------------------------------------
Pair    | 0.0099693  | 0.047073   | 0.086718   |  16.4 | 27.00
Neigh   | 0.0024061  | 0.0060655  | 0.010295   |   4.5 |  3.48
Comm    | 0.063928   | 0.10594    | 0.14657    |  12.3 | 60.77
Output  | 0.00039949 | 0.00044482 | 0.00054464 |   0.0 |  0.26
Modify  | 0.005471   | 0.008457   | 0.011932   |   2.9 |  4.85
Other   |            | 0.006346   |            |       |  3.64

Nlocal:             30 ave          71 max           8 min
Histogram: 2 0 0 1 0 0 0 0 0 1
Nghost:             90 ave         112 max          49 min
Histogram: 1 0 0 0 0 0 1 0 0 2
Neighs:              0 ave           0 max           0 min
Histogram: 4 0 0 0 0 0 0 0 0 0

Total # of neighbors = 0
Ave neighs/atom = 0
Neighbor list builds = 420
Dangerous builds = 0

unfix           1
set             type 1 angmom 0.0 0.0 0.0
Setting atom values ...
  96 settings made for angmom
velocity        tri set 0.0 0.0 0.0
run             5000
Generated 0 of 1 mixed pair_coeff terms from geometric mixing rule
Per MPI rank memory allocation (min/avg/max) = 19.12 | 19.14 | 19.17 Mbytes
   Step        Atoms         Temp           c_1            c_2           Press     
     20000         120   0.30549443     0.38267197     0.20570889     0.014808085  
     20100         120   0.11971946     0.14996438     0.090465201    0.0043866133 
     20200         120   0.10600212     0.13278161     0.08066191     0.0063042796 
     20300         120   0.097674676    0.12235038     0.073813154    0.010789662  
     20400         120   0.089827101    0.11252026     0.066909366    0.012375448  
     20500         120   0.069142356    0.086609898    0.053860989    0.0066462453 
     20600         120   0.075346847    0.09438184     0.057956831    0.0085620766 
     20700         120   0.073910135    0.092582169    0.057594791    0.0033103597 
     20800         120   0.072124642    0.090345604    0.057784309    0.0069651904 
     20900         120   0.067393924    0.084419758    0.055019211    0.0071897219 
     21000         120   0.061139159    0.076584841    0.051472429    0.0037532569 
     21100         120   0.054030395    0.067680179    0.047447314    0.0035876412 
     21200         120   0.052432136    0.06567815     0.045673155    0.0076520667 
     21300         120   0.051877071    0.064982858    0.044285303    0.004565054  
     21400         120   0.040495618    0.050726089    0.036172913    0.0055977219 
     21500         120   0.041751034    0.052298664    0.037296127    0.0040360895 
     21600         120   0.034667845    0.043426037    0.032219206    0.001988044  
     21700         120   0.027117488    0.033968222    0.027472793    0.002215881  
     21800         120   0.027504879    0.03445348     0.027260698    0.0060327026 
     21900         120   0.02208527     0.027664706    0.022667303    0.0027816485 
     22000         120   0.021270046    0.026643531    0.021677603    0.0029658725 
     22100         120   0.01709316     0.021411432    0.018980745    0.0024808925 
     22200         120   0.015121883    0.018942148    0.017186352    0.0036450206 
     22300         120   0.015259061    0.019113982    0.017348332    0.0033659582 
     22400         120   0.018066687    0.022630902    0.019186069    0.0015333115 
     22500         120   0.014428363    0.018073423    0.016301328    0.0023726372 
     22600         120   0.013004162    0.016289424    0.01506155     0.0025050393 
     22700         120   0.013209107    0.016546144    0.015302315    0.0025477189 
     22800         120   0.011924769    0.014937343    0.014591469    0.0021523843 
     22900         120   0.012632495    0.015823862    0.015459176    0.0046987001 
     23000         120   0.014118259    0.017684977    0.01625326     0.002914443  
     23100         120   0.011800992    0.014782295    0.014709934    0.0010497661 
     23200         120   0.012177995    0.015254541    0.014509024    0.0013924802 
     23300         120   0.011743157    0.014709849    0.014560699    0.002753399  
     23400         120   0.010116442    0.012672175    0.013430567    0.0015750171 
     23500         120   0.01135649     0.014225498    0.014229907    0.0009943979 
     23600         120   0.010949457    0.013715636    0.013761582    0.0027467815 
     23700         120   0.010439373    0.013076689    0.013229199    0.0033517675 
     23800         120   0.0097197548   0.012175272    0.012134485    0.0030898395 
     23900         120   0.0089351436   0.011192443    0.011373187    0.0017930717 
     24000         120   0.0091044941   0.011404577    0.011427547    0.0029125138 
     24100         120   0.0093429869   0.01170332     0.011212502    0.002631115  
     24200         120   0.0086167549   0.010793619    0.010902335    0.0013898467 
     24300         120   0.0079087429   0.0099067411   0.010385124    0.0024555308 
     24400         120   0.0063152316   0.0079106585   0.0089914417   0.0050033848 
     24500         120   0.0059698781   0.0074780578   0.0090186499   0.0024011343 
     24600         120   0.0062071905   0.0077753228   0.0088303841   0.0015312448 
     24700         120   0.0051497329   0.0064507181   0.008090307    0.00187198   
     24800         120   0.0052471219   0.0065727105   0.0084762628   0.0017072671 
     24900         120   0.0053178113   0.0066612584   0.0082926943   0.0017126648 
     25000         120   0.0048837772   0.0061175735   0.0080713594   0.0014113749 
Loop time of 0.137024 on 4 procs for 5000 steps with 120 atoms

Performance: 15763717.493 tau/day, 36490.087 timesteps/s, 4.379 Matom-step/s
96.4% CPU use with 4 MPI tasks x 1 OpenMP threads

MPI task timing breakdown:
Section |  min time  |  avg time  |  max time  |%varavg| %total
---------------------------------------------------------------
Pair    | 0.00085375 | 0.038483   | 0.08849    |  19.6 | 28.08
Neigh   | 0.00059715 | 0.0024973  | 0.0050449  |   3.8 |  1.82
Comm    | 0.033561   | 0.084912   | 0.12471    |  13.8 | 61.97
Output  | 0.00034587 | 0.00040067 | 0.00050182 |   0.0 |  0.29
Modify  | 0.0019663  | 0.0042483  | 0.0063132  |   3.2 |  3.10
Other   |            | 0.006483   |            |       |  4.73

Nlocal:             30 ave          57 max           5 min
Histogram: 2 0 0 0 0 0 0 0 1 1
Nghost:             90 ave         115 max          63 min
Histogram: 1 1 0 0 0 0 0 0 0 2
Neighs:              0 ave           0 max           0 min
Histogram: 4 0 0 0 0 0 0 0 0 0

Total # of neighbors = 0
Ave neighs/atom = 0
Neighbor list builds = 205
Dangerous builds = 0

Total wall time: 0:00:00
