LAMMPS (4 Jul 2026 - Development - patch_4Jul2026-197-g34022a802c)
OMP_NUM_THREADS environment is not set. Defaulting to 1 thread.
  using 1 OpenMP thread(s) per MPI task
# pouring spheres into box made of triangles

units           lj
atom_style      tri
atom_modify     map array
boundary        f f f
dimension       3
comm_modify     vel yes cutoff 12.5

read_data       data.tribox
Reading data file ...
  orthogonal box = (-9 -9 -9) to (9 9 9)
  1 by 1 by 1 MPI processor grid
  reading atoms ...
  24 atoms
  24 triangles
  read_data CPU = 0.001 seconds

pair_style      hybrid granular surf/granular
pair_coeff      1 1 granular hooke 4000.0 100.0                          tangential linear_history 1000.0 1.0 0.5                          damping mass_velocity
pair_coeff      1 2 surf/granular hooke 4000.0 100.0                          tangential linear_history 1000.0 1.0 0.5                          damping mass_velocity
pair_coeff      2 2 none

group           sphere type 1
0 atoms in group sphere
group           tri type 2
24 atoms in group tri

fix             fsl all surface/local
Connecting line/tri particles ...
Fix surface/local triangle creation:
  24 tris
  36 tri edges
  14 tri corner points
  36 edge connections
  84 corner point connections
  0 free edges
  0 free corner points
  8.485281374238568 min edge length
  12.000000000000005 max edge length
  35.999999999999986 min tri area
  36.000000000000036 max tri area

neighbor        0.3 bin
neigh_modify    delay 0 every 1 check yes

fix             2 sphere nve/sphere
fix             3 sphere gravity 1.0 vector 0 0 -1

region          slab block -2 2 -2 2 -2 2 units box
fix             ins sphere pour 100 1 4767548 vol 0.4 10                 diam one 1.0 region slab ignore

timestep        0.005

compute         1 sphere temp
compute_modify  1 dynamic/dof yes

compute         2 sphere temp/sphere
compute_modify  2 dynamic/dof yes

thermo          100
thermo_style    custom step atoms temp c_1 c_2 press
thermo_modify   lost ignore
compute_modify  thermo_temp dynamic/dof yes

#dump           2 all image 100 tmp.image.*.ppm type type #               zoom 1.4 adiam 1.0 tri type 2 0.2
#dump_modify        2 pad 5

run             5000
Generated 0 of 1 mixed pair_coeff terms from geometric mixing rule
Particle insertion: 48 every 566 steps, 100 by step 1133
Neighbor list info ...
  update: every = 1 steps, delay = 0 steps, check = yes
  max neighbors/atom: 2000, page size: 100000
  master list distance cutoff = 7.1245553
  ghost atom cutoff = 12.5
  binsize = 3.5622777, bins = 6 6 6
  3 neighbor lists, perpetual/occasional/extra = 3 0 0
  (1) pair granular, perpetual, skip from (3)
      attributes: half, newton on, size, history, off2on
      pair build: skip/size/off2on
      stencil: none
      bin: none
  (2) pair surf/granular, perpetual, skip from (3)
      attributes: half, newton on, size, history, onesided, off2on
      pair build: skip/size/off2on/oneside
      stencil: none
      bin: none
  (3) neighbor class addition, perpetual
      attributes: half, newton off, size, history
      pair build: half/size/bin/atomonly/newtoff
      stencil: full/bin/3d
      bin: standard
Per MPI rank memory allocation (min/avg/max) = 18.99 | 18.99 | 18.99 Mbytes
   Step        Atoms         Temp           c_1            c_2           Press     
         0          24   0              0              0              0            
WARNING: Fewer insertions than requested (src/GRANULAR/fix_pour.cpp:691)
       100          54   0.43980579     0.803783       0.39507978     0.0039968633 
       200          54   0.65485258     1.1967995      0.5882574      0.0059511637 
       300          54   0.70118095     1.2814686      0.62987441     0.0063721863 
       400          54   0.45325721     0.82836663     0.40994817     0.0041545596 
       500          54   0.45475589     0.83110558     0.414729       0.0059300973 
WARNING: Fewer insertions than requested (src/GRANULAR/fix_pour.cpp:691)
       600          88   0.36933761     0.51003765     0.26258869     0.0051564871 
       700          88   0.42058223     0.58080404     0.29751792     0.0091770621 
       800          88   0.46104238     0.63667757     0.32644388     0.0070645303 
       900          88   0.41290353     0.57020011     0.29762919     0.0093938303 
      1000          88   0.34695571     0.47912932     0.25178552     0.0056281583 
      1100          88   0.33424829     0.46158097     0.2466537      0.0060019254 
WARNING: Fewer insertions than requested (src/GRANULAR/fix_pour.cpp:691)
      1200         123   0.3614775      0.4500026      0.23713789     0.019109242  
      1300         123   0.34569407     0.43035384     0.22891578     0.0079291792 
      1400         123   0.33079906     0.41181107     0.21811838     0.0089493183 
      1500         123   0.28224178     0.35136222     0.18849775     0.013185161  
      1600         123   0.23235374     0.2892567      0.1586093      0.0092046972 
      1700         124   0.1803208      0.22403494     0.12490013     0.0078686044 
      1800         124   0.10284771     0.12778048     0.077345781    0.0051240967 
      1900         124   0.049671325    0.061712858    0.040709047    0.0046757023 
      2000         124   0.048746633    0.060563999    0.039225805    0.0037815017 
      2100         124   0.037102486    0.046097028    0.030465402    0.0031443319 
      2200         124   0.036513988    0.045365864    0.028842903    0.0032252594 
      2300         124   0.020055586    0.024917546    0.018141141    0.0020796715 
      2400         124   0.015847637    0.019689488    0.014445083    0.0025102899 
      2500         124   0.010443859    0.012975703    0.0099855107   0.0027412474 
      2600         124   0.0085870058   0.010668704    0.008157597    0.0024642287 
      2700         124   0.0056632665   0.0070361796   0.0058270399   0.0018971326 
      2800         124   0.0045294324   0.0056274766   0.0047486988   0.0018384014 
      2900         124   0.0034641045   0.0043038874   0.0038970393   0.0023333062 
      3000         124   0.0026932686   0.0033461822   0.0030814142   0.0030005692 
      3100         124   0.0025393016   0.0031548898   0.0027977761   0.0019288049 
      3200         124   0.0020944631   0.0026022117   0.002385429    0.0018973907 
      3300         124   0.0022822162   0.0028354808   0.0023223199   0.00155433   
      3400         124   0.0014791661   0.0018377518   0.0017388495   0.0018847387 
      3500         124   0.0017000581   0.0021121934   0.0018069448   0.0016132963 
      3600         124   0.0011565106   0.0014368769   0.0014150725   0.0016372837 
      3700         124   0.00097415535  0.0012103142   0.0012549231   0.0016946063 
      3800         124   0.00080397533  0.00099887845  0.001093142    0.0014915109 
      3900         124   0.00069322986  0.00086128558  0.00099227848  0.0018918158 
      4000         124   0.00065668187  0.00081587748  0.00095807114  0.0015857616 
      4100         124   0.00058950291  0.0007324127   0.00088727037  0.0014701931 
      4200         124   0.00053230946  0.00066135418  0.00081767777  0.0015047403 
      4300         124   0.00044968194  0.00055869574  0.00074267407  0.0015115757 
      4400         124   0.00039505631  0.00049082754  0.00067302523  0.0015042787 
      4500         124   0.00037342054  0.00046394674  0.00064410847  0.001505979  
      4600         124   0.00035173173  0.00043700003  0.00062044145  0.0015219349 
      4700         124   0.00034468569  0.00042824585  0.00060273078  0.0015099824 
      4800         124   0.00033661556  0.00041821933  0.00059134908  0.0015057937 
      4900         124   0.00032450323  0.00040317069  0.00057771511  0.0014977232 
      5000         124   0.00030586794  0.00038001775  0.00055926346  0.0014953288 
Loop time of 0.153493 on 1 procs for 5000 steps with 124 atoms

Performance: 14072289.219 tau/day, 32574.744 timesteps/s, 4.039 Matom-step/s
99.7% CPU use with 1 MPI tasks x 1 OpenMP threads

MPI task timing breakdown:
Section |  min time  |  avg time  |  max time  |%varavg| %total
---------------------------------------------------------------
Pair    | 0.13573    | 0.13573    | 0.13573    |   0.0 | 88.43
Neigh   | 0.0086417  | 0.0086417  | 0.0086417  |   0.0 |  5.63
Comm    | 0.00045425 | 0.00045425 | 0.00045425 |   0.0 |  0.30
Output  | 0.00031568 | 0.00031568 | 0.00031568 |   0.0 |  0.21
Modify  | 0.0065428  | 0.0065428  | 0.0065428  |   0.0 |  4.26
Other   |            | 0.001812   |            |       |  1.18

Nlocal:            124 ave         124 max         124 min
Histogram: 1 0 0 0 0 0 0 0 0 0
Nghost:              0 ave           0 max           0 min
Histogram: 1 0 0 0 0 0 0 0 0 0
Neighs:              0 ave           0 max           0 min
Histogram: 1 0 0 0 0 0 0 0 0 0

Total # of neighbors = 0
Ave neighs/atom = 0
Neighbor list builds = 270
Dangerous builds = 0

fix             1 tri move rotate 0 0 0 0 0 1 25
run             5000
Generated 0 of 1 mixed pair_coeff terms from geometric mixing rule
Per MPI rank memory allocation (min/avg/max) = 19.87 | 19.87 | 19.87 Mbytes
   Step        Atoms         Temp           c_1            c_2           Press     
      5000         124   0.00030586794  0.00038001775  0.00055926346  0.0014986987 
      5100         124   5.2156834      0.10994972     0.065250558    0.11298157   
      5200         124   5.2278205      0.12502918     0.078136035    0.11186783   
      5300         124   5.2474251      0.14938636     0.086025471    0.1125779    
      5400         124   5.2558121      0.15980663     0.088544143    0.11307658   
      5500         124   5.2619351      0.16741392     0.091119416    0.11325043   
      5600         124   5.270427       0.17796454     0.095147694    0.11307281   
      5700         124   5.2750616      0.18372268     0.097441557    0.11338504   
      5800         124   5.286417       0.19783086     0.10361714     0.11371674   
      5900         124   5.2894923      0.2016517      0.10527509     0.1151079    
      6000         124   5.2960173      0.20975846     0.10891965     0.11559935   
      6100         124   5.3049237      0.220824       0.11399226     0.1138315    
      6200         124   5.3134425      0.23140797     0.11891475     0.11551542   
      6300         124   5.3221637      0.24224342     0.12398562     0.11435511   
      6400         124   5.3302355      0.25227207     0.12869714     0.11583268   
      6500         124   5.3401892      0.26463878     0.13430207     0.1153904    
      6600         124   5.3465812      0.27258031     0.13832746     0.11561265   
      6700         124   5.3547428      0.28272054     0.14310063     0.11674081   
      6800         124   5.3561666      0.2844895      0.1437885      0.11653302   
      6900         124   5.3623841      0.29221421     0.14738027     0.11632573   
      7000         124   5.3680223      0.29921926     0.15075971     0.1184629    
      7100         124   5.3718416      0.30396448     0.15305233     0.11734824   
      7200         124   5.3739886      0.3066319      0.15425264     0.11717978   
      7300         124   5.3764398      0.30967742     0.15575985     0.11724199   
      7400         124   5.3805679      0.3148063      0.15832043     0.1171741    
      7500         124   5.3790039      0.31286307     0.15733451     0.11758329   
      7600         124   5.3814282      0.31587509     0.15855452     0.11773874   
      7700         124   5.3853034      0.32068975     0.16101055     0.1169811    
      7800         124   5.3844906      0.31967993     0.16047628     0.11712137   
      7900         124   5.3864028      0.32205568     0.16153185     0.11831408   
      8000         124   5.3881242      0.32419433     0.16253123     0.11710903   
      8100         124   5.388949       0.32521909     0.16300711     0.11767639   
      8200         124   5.3919779      0.32898233     0.16479186     0.11781135   
      8300         124   5.3912362      0.32806077     0.16426655     0.11912998   
      8400         124   5.3908531      0.32758482     0.16396449     0.11693475   
      8500         124   5.3938603      0.3313211      0.1658104      0.11806056   
      8600         124   5.3947295      0.332401       0.1663448      0.1179662    
      8700         124   5.3938528      0.33131168     0.16574016     0.11968505   
      8800         124   5.396347       0.33441063     0.16725852     0.11767383   
      8900         124   5.3976347      0.33601049     0.16806983     0.11767659   
      9000         124   5.3979471      0.33639854     0.16827639     0.11753655   
      9100         124   5.3977302      0.33612914     0.16825219     0.11831006   
      9200         124   5.3980659      0.33654619     0.1682842      0.11814062   
      9300         124   5.3984877      0.33707026     0.16857802     0.11869216   
      9400         124   5.3981126      0.33660422     0.1683699      0.11818435   
      9500         124   5.3965481      0.33466048     0.16742428     0.11832468   
      9600         124   5.3964374      0.33452284     0.16741644     0.1178818    
      9700         124   5.3978741      0.33630785     0.16823795     0.11758377   
      9800         124   5.3987499      0.33739604     0.16867192     0.11712663   
      9900         124   5.3964707      0.33456431     0.16712962     0.11771528   
     10000         124   5.3976362      0.33601229     0.16785831     0.11825967   
Loop time of 0.291804 on 1 procs for 5000 steps with 124 atoms

Performance: 7402229.020 tau/day, 17134.789 timesteps/s, 2.125 Matom-step/s
99.7% CPU use with 1 MPI tasks x 1 OpenMP threads

MPI task timing breakdown:
Section |  min time  |  avg time  |  max time  |%varavg| %total
---------------------------------------------------------------
Pair    | 0.26298    | 0.26298    | 0.26298    |   0.0 | 90.12
Neigh   | 0.013361   | 0.013361   | 0.013361   |   0.0 |  4.58
Comm    | 0.00051276 | 0.00051276 | 0.00051276 |   0.0 |  0.18
Output  | 0.00043848 | 0.00043848 | 0.00043848 |   0.0 |  0.15
Modify  | 0.012256   | 0.012256   | 0.012256   |   0.0 |  4.20
Other   |            | 0.002253   |            |       |  0.77

Nlocal:            124 ave         124 max         124 min
Histogram: 1 0 0 0 0 0 0 0 0 0
Nghost:              0 ave           0 max           0 min
Histogram: 1 0 0 0 0 0 0 0 0 0
Neighs:              0 ave           0 max           0 min
Histogram: 1 0 0 0 0 0 0 0 0 0

Total # of neighbors = 0
Ave neighs/atom = 0
Neighbor list builds = 314
Dangerous builds = 0

unfix           1
set             type 1 angmom 0.0 0.0 0.0
Setting atom values ...
  100 settings made for angmom
velocity        tri set 0.0 0.0 0.0
run             5000
Generated 0 of 1 mixed pair_coeff terms from geometric mixing rule
Per MPI rank memory allocation (min/avg/max) = 18.99 | 18.99 | 18.99 Mbytes
   Step        Atoms         Temp           c_1            c_2           Press     
     10000         124   0.27044892     0.33601229     0.16785831     0.0098993636 
     10100         124   0.11195963     0.13910136     0.07871085     0.0045649807 
     10200         124   0.069420703    0.086249965    0.059285256    0.0038986335 
     10300         124   0.04359058     0.054157993    0.043279503    0.0085831993 
     10400         124   0.035699243    0.044353604    0.037823643    0.0038879408 
     10500         124   0.033201701    0.041250598    0.035424541    0.0040514181 
     10600         124   0.030080554    0.03737281     0.033492288    0.0026067906 
     10700         124   0.02684094     0.033347834    0.031200894    0.0025561152 
     10800         124   0.022099569    0.02745704     0.026575748    0.0032422389 
     10900         124   0.020600161    0.02559414     0.026170346    0.0025079889 
     11000         124   0.019620374    0.024376829    0.026283477    0.0025035008 
     11100         124   0.017816609    0.022135787    0.024724208    0.0023313071 
     11200         124   0.016697407    0.020745263    0.023614871    0.0027803645 
     11300         124   0.014742128    0.018315977    0.021139686    0.002602463  
     11400         124   0.012945311    0.016083568    0.0190736      0.0033654762 
     11500         124   0.011813776    0.014677722    0.018175334    0.0020730441 
     11600         124   0.010729588    0.013330701    0.017640697    0.0021911016 
     11700         124   0.010117484    0.012570207    0.017714405    0.0021341757 
     11800         124   0.0093094737   0.011566316    0.016391053    0.0018393088 
     11900         124   0.0086857258   0.010791356    0.016845917    0.0019722295 
     12000         124   0.0089576606   0.011129215    0.018012822    0.0018705627 
     12100         124   0.0086497465   0.010746655    0.017833727    0.001872048  
     12200         124   0.0081142602   0.010081354    0.01769745     0.001800788  
     12300         124   0.0080991129   0.010062534    0.017534012    0.0018804889 
     12400         124   0.0080313166   0.0099783024   0.017614746    0.0018994224 
     12500         124   0.007577544    0.0094145244   0.017318948    0.0020322328 
     12600         124   0.0075849137   0.0094236807   0.016645505    0.0027064845 
     12700         124   0.0076138311   0.0094596084   0.016903648    0.0021800196 
     12800         124   0.0070040417   0.0087019912   0.015736469    0.0023474517 
     12900         124   0.0073111957   0.0090836068   0.016462533    0.0023481532 
     13000         124   0.0075682579   0.0094029871   0.016921743    0.0020397415 
     13100         124   0.0074231856   0.0092227458   0.016131399    0.0023419106 
     13200         124   0.0072470687   0.0090039339   0.016784628    0.0017880753 
     13300         124   0.0069614321   0.008649052    0.016716006    0.0019542956 
     13400         124   0.0069925955   0.0086877702   0.016832619    0.0020871118 
     13500         124   0.0070117386   0.008711554    0.016824197    0.0018103061 
     13600         124   0.0070551552   0.0087654958   0.017235097    0.0024353014 
     13700         124   0.007068507    0.0087820844   0.017032896    0.0017154473 
     13800         124   0.0064058115   0.0079587355   0.01629493     0.0019347908 
     13900         124   0.0060273588   0.0074885367   0.01668266     0.0018401285 
     14000         124   0.0064317636   0.007990979    0.016060068    0.0021183992 
     14100         124   0.0068222188   0.00847609     0.01678052     0.0019435851 
     14200         124   0.006458704    0.0080244504   0.016804801    0.0020433376 
     14300         124   0.0061781812   0.007675922    0.016494481    0.0016712036 
     14400         124   0.0062317237   0.0077424446   0.016935505    0.002262976  
     14500         124   0.0054246918   0.0067397686   0.015886977    0.0017749385 
     14600         124   0.0051466576   0.0063943322   0.016330432    0.0021221003 
     14700         124   0.0052316563   0.0064999367   0.016405303    0.0029190984 
     14800         124   0.0056932145   0.0070733877   0.016111529    0.0033891257 
     14900         124   0.0053737196   0.0066764395   0.015622276    0.0024497611 
     15000         124   0.0058874187   0.0073146717   0.015879538    0.00093160272
Loop time of 0.20856 on 1 procs for 5000 steps with 124 atoms

Performance: 10356740.020 tau/day, 23973.935 timesteps/s, 2.973 Matom-step/s
99.6% CPU use with 1 MPI tasks x 1 OpenMP threads

MPI task timing breakdown:
Section |  min time  |  avg time  |  max time  |%varavg| %total
---------------------------------------------------------------
Pair    | 0.19519    | 0.19519    | 0.19519    |   0.0 | 93.59
Neigh   | 0.0042278  | 0.0042278  | 0.0042278  |   0.0 |  2.03
Comm    | 0.0004377  | 0.0004377  | 0.0004377  |   0.0 |  0.21
Output  | 0.00056488 | 0.00056488 | 0.00056488 |   0.0 |  0.27
Modify  | 0.0063312  | 0.0063312  | 0.0063312  |   0.0 |  3.04
Other   |            | 0.001809   |            |       |  0.87

Nlocal:            124 ave         124 max         124 min
Histogram: 1 0 0 0 0 0 0 0 0 0
Nghost:              0 ave           0 max           0 min
Histogram: 1 0 0 0 0 0 0 0 0 0
Neighs:              0 ave           0 max           0 min
Histogram: 1 0 0 0 0 0 0 0 0 0

Total # of neighbors = 0
Ave neighs/atom = 0
Neighbor list builds = 98
Dangerous builds = 0

fix             1 tri move rotate 0 0 0 1 1 1 25
run             5000
Generated 0 of 1 mixed pair_coeff terms from geometric mixing rule
Per MPI rank memory allocation (min/avg/max) = 19.87 | 19.87 | 19.87 Mbytes
   Step        Atoms         Temp           c_1            c_2           Press     
     15000         124   0.0058874187   0.0073146717   0.015879538    0.0011231946 
     15100         124   5.2585228      0.16317444     0.098612189    0.11262893   
     15200         124   5.292923       0.20591413     0.1217875      0.11621859   
     15300         124   5.3160838      0.23468964     0.13491714     0.11713813   
     15400         124   5.3364537      0.25999766     0.14552266     0.1193031    
     15500         124   5.3497343      0.27649778     0.15259417     0.12527992   
     15600         124   5.3533116      0.2809423      0.15357826     0.12514416   
     15700         123   5.4064692      0.29535927     0.15998787     0.12270348   
     15800         123   5.3993631      0.28651294     0.15269823     0.12113484   
     15900         123   5.3941065      0.27996891     0.14716879     0.12586114   
     16000         123   5.418044       0.30976865     0.16012515     0.1301758    
     16100         123   5.426786       0.32065157     0.16547398     0.13088405   
     16200         123   5.4330551      0.32845602     0.16829164     0.12301588   
     16300         123   5.4665056      0.37009849     0.18888906     0.12498386   
     16400         123   5.4583849      0.35998896     0.18402873     0.13098189   
     16500         123   5.4452159      0.34359499     0.17664917     0.12765524   
     16600         123   5.4334651      0.32896639     0.16707749     0.14640665   
     16700         123   5.4543423      0.35495639     0.17984719     0.12103921   
     16800         123   5.424505       0.31781194     0.1613211      0.12250637   
     16900         123   5.3914866      0.27670746     0.14181751     0.12156563   
     17000         123   5.3938769      0.27968315     0.14505796     0.11917133   
     17100         123   5.3973854      0.28405082     0.14907303     0.11428074   
     17200         123   5.4287503      0.32309702     0.17037855     0.11659344   
     17300         123   5.4418529      0.33940834     0.18161189     0.11786368   
     17400         123   5.5027349      0.41520026     0.22148739     0.11716899   
     17500         123   5.5310272      0.45042132     0.24270549     0.11983575   
     17600         123   5.5429956      0.4653207      0.25577526     0.11952454   
     17700         123   5.6348121      0.57962286     0.31420038     0.12394984   
     17800         123   5.6468265      0.59457962     0.3259121      0.12855316   
     17900         123   5.6356094      0.58061545     0.32028946     0.13202054   
     18000         123   5.6247922      0.56714911     0.31706321     0.13240989   
     18100         123   5.5529876      0.47775969     0.2699707      0.12535628   
     18200         123   5.4829299      0.39054502     0.22671441     0.12867899   
     18300         123   5.4753411      0.3810978      0.2222624      0.12038123   
     18400         123   5.4437276      0.34174215     0.20258072     0.11897953   
     18500         123   5.4454389      0.34387263     0.20653956     0.12024186   
     18600         123   5.4115325      0.30166251     0.19019775     0.11469436   
     18700         123   5.4101546      0.29994722     0.19203507     0.1156974    
     18800         123   5.4251376      0.3185995      0.20546246     0.11596557   
     18900         123   5.4331131      0.32852815     0.21154573     0.11964155   
     19000         122   5.4709237      0.32306944     0.2060037      0.12006568   
     19100         121   5.5019665      0.30824938     0.19207912     0.11921855   
     19200         121   5.5111619      0.31974363     0.1993173      0.12284512   
     19300         121   5.4967947      0.30178464     0.18249486     0.12736157   
     19400         121   5.5140234      0.3233206      0.1897976      0.12199214   
     19500         121   5.5192508      0.32985478     0.18953036     0.11966305   
     19600         121   5.5253735      0.33750824     0.19088602     0.12261892   
     19700         121   5.5362934      0.35115802     0.19334456     0.12178563   
     19800         121   5.552117       0.37093754     0.20113796     0.13897906   
     19900         121   5.5466274      0.36407551     0.19632548     0.11881329   
     20000         121   5.5490449      0.3670974      0.19611157     0.1206485    
Loop time of 0.196988 on 1 procs for 5000 steps with 121 atoms

Performance: 10965129.032 tau/day, 25382.243 timesteps/s, 3.071 Matom-step/s
99.5% CPU use with 1 MPI tasks x 1 OpenMP threads

MPI task timing breakdown:
Section |  min time  |  avg time  |  max time  |%varavg| %total
---------------------------------------------------------------
Pair    | 0.16188    | 0.16188    | 0.16188    |   0.0 | 82.18
Neigh   | 0.019228   | 0.019228   | 0.019228   |   0.0 |  9.76
Comm    | 0.00054316 | 0.00054316 | 0.00054316 |   0.0 |  0.28
Output  | 0.0003208  | 0.0003208  | 0.0003208  |   0.0 |  0.16
Modify  | 0.012763   | 0.012763   | 0.012763   |   0.0 |  6.48
Other   |            | 0.002254   |            |       |  1.14

Nlocal:            121 ave         121 max         121 min
Histogram: 1 0 0 0 0 0 0 0 0 0
Nghost:              0 ave           0 max           0 min
Histogram: 1 0 0 0 0 0 0 0 0 0
Neighs:              0 ave           0 max           0 min
Histogram: 1 0 0 0 0 0 0 0 0 0

Total # of neighbors = 0
Ave neighs/atom = 0
Neighbor list builds = 416
Dangerous builds = 0

unfix           1
set             type 1 angmom 0.0 0.0 0.0
Setting atom values ...
  97 settings made for angmom
velocity        tri set 0.0 0.0 0.0
run             5000
Generated 0 of 1 mixed pair_coeff terms from geometric mixing rule
Per MPI rank memory allocation (min/avg/max) = 18.99 | 18.99 | 18.99 Mbytes
   Step        Atoms         Temp           c_1            c_2           Press     
     20000         121   0.29367792     0.3670974      0.19611157     0.0029565348 
     20100         121   0.12725669     0.15907087     0.093692425    0.0063666146 
     20200         121   0.11891189     0.14863986     0.086585177    0.0053969271 
     20300         121   0.1109372      0.1386715      0.080964675    0.010643207  
     20400         121   0.067541725    0.084427156    0.055465313    0.011430229  
     20500         121   0.073534995    0.091918744    0.060638471    0.0072292465 
     20600         121   0.062469435    0.078086794    0.050645911    0.0049342881 
     20700         121   0.061409817    0.076762271    0.048807214    0.011714941  
     20800         121   0.049319683    0.061649603    0.04037552     0.0084585901 
     20900         121   0.051345235    0.064181543    0.042283899    0.0058976446 
     21000         121   0.048023051    0.060028813    0.041127204    0.0074891817 
     21100         121   0.04842804     0.060535051    0.04137692     0.0077610155 
     21200         121   0.043036889    0.053796111    0.038621376    0.0066952605 
     21300         121   0.035970235    0.044962793    0.033732357    0.0063268006 
     21400         121   0.037642027    0.047052534    0.034285322    0.0042051146 
     21500         121   0.037760267    0.047200334    0.033999067    0.0043326678 
     21600         121   0.032572711    0.040715889    0.030927261    0.0091207659 
     21700         121   0.02792697     0.034908712    0.027536585    0.0059969635 
     21800         121   0.027578644    0.034473305    0.027110137    0.0046302368 
     21900         121   0.027119443    0.033899304    0.025767315    0.0034399494 
     22000         121   0.018252526    0.022815657    0.018889213    0.0026830249 
     22100         121   0.020754111    0.025942639    0.021212583    0.0050829425 
     22200         121   0.018794389    0.023492986    0.019319185    0.0038588865 
     22300         121   0.016672666    0.020840832    0.017591421    0.0026950257 
     22400         121   0.013241028    0.016551284    0.015263561    0.0053149319 
     22500         121   0.013398572    0.016748216    0.015696081    0.002429049  
     22600         121   0.012715814    0.015894767    0.01551785     0.0025506004 
     22700         121   0.013577573    0.016971966    0.016119413    0.0042597545 
     22800         121   0.012264442    0.015330553    0.014818387    0.0032015894 
     22900         121   0.013529851    0.016912313    0.015576726    0.0020876599 
     23000         121   0.013292498    0.016615623    0.015465608    0.0022705535 
     23100         121   0.015561879    0.019452348    0.016881574    0.0033051876 
     23200         121   0.011291446    0.014114307    0.01360524     0.0025814414 
     23300         121   0.011289026    0.014111282    0.013305349    0.0028474752 
     23400         121   0.0099567495   0.012445937    0.012547569    0.0047833089 
     23500         121   0.0098233745   0.012279218    0.012094621    0.0011759119 
     23600         121   0.010953639    0.013692049    0.013229734    0.0032143542 
     23700         121   0.0093226414   0.011653302    0.012530578    0.0014751369 
     23800         121   0.0093988893   0.011748612    0.012050323    0.00271112   
     23900         121   0.0082900686   0.010362586    0.011128961    0.003745472  
     24000         121   0.0075484212   0.0094355265   0.011067133    0.0032832147 
     24100         121   0.0064084692   0.0080105865   0.010250852    0.0011796904 
     24200         121   0.0060246715   0.0075308394   0.0096546836   0.0014832723 
     24300         121   0.0053367938   0.0066709922   0.0088970975   0.0025351043 
     24400         121   0.0056643499   0.0070804374   0.009387241    0.0033659103 
     24500         121   0.0050107426   0.0062634283   0.0090052834   0.0036462113 
     24600         121   0.0046871444   0.0058589305   0.0088160618   0.0018732928 
     24700         121   0.0049493284   0.0061866605   0.0091065181   0.0010845691 
     24800         121   0.0041657051   0.0052071314   0.0084114269   0.0019326522 
     24900         121   0.0038059206   0.0047574007   0.0080644355   0.0012640126 
     25000         121   0.0041382209   0.0051727761   0.0082197139   0.0015899475 
Loop time of 0.169005 on 1 procs for 5000 steps with 121 atoms

Performance: 12780673.047 tau/day, 29584.891 timesteps/s, 3.580 Matom-step/s
99.4% CPU use with 1 MPI tasks x 1 OpenMP threads

MPI task timing breakdown:
Section |  min time  |  avg time  |  max time  |%varavg| %total
---------------------------------------------------------------
Pair    | 0.15091    | 0.15091    | 0.15091    |   0.0 | 89.29
Neigh   | 0.0084446  | 0.0084446  | 0.0084446  |   0.0 |  5.00
Comm    | 0.00044545 | 0.00044545 | 0.00044545 |   0.0 |  0.26
Output  | 0.0003736  | 0.0003736  | 0.0003736  |   0.0 |  0.22
Modify  | 0.0069138  | 0.0069138  | 0.0069138  |   0.0 |  4.09
Other   |            | 0.001919   |            |       |  1.14

Nlocal:            121 ave         121 max         121 min
Histogram: 1 0 0 0 0 0 0 0 0 0
Nghost:              0 ave           0 max           0 min
Histogram: 1 0 0 0 0 0 0 0 0 0
Neighs:              0 ave           0 max           0 min
Histogram: 1 0 0 0 0 0 0 0 0 0

Total # of neighbors = 0
Ave neighs/atom = 0
Neighbor list builds = 206
Dangerous builds = 0

Total wall time: 0:00:01
