LAMMPS (4 Jul 2026 - Development - patch_4Jul2026-197-g34022a802c)
OMP_NUM_THREADS environment is not set. Defaulting to 1 thread.
  using 1 OpenMP thread(s) per MPI task
# pouring spheres into box made of triangles

units           lj
atom_style      sphere
boundary        f f f
dimension       3
comm_modify     vel yes

region          box block -7 7 -7 7 0 9 units box
create_box      2 box   # simply for dump_modify to color lines = green
Created orthogonal box = (-7 -7 0) to (7 7 9)
  2 by 2 by 1 MPI processor grid

pair_style      granular
pair_coeff      * * hooke 4000.0 100.0                     tangential linear_history 1000.0 1.0 0.5                     damping mass_velocity

neighbor        0.3 bin
neigh_modify    delay 0 every 1 check yes

molecule        tris surf.tri
Read molecule template tris:
LAMMPS data file for tri plane
  1 molecules
  0 fragments
  0 bodies
  0 atoms with max type 0
  0 bonds with max type 0
  0 angles with max type 0
  0 dihedrals with max type 0
  0 impropers with max type 0
  4 triangles

fix             20 all surface/global input mol tris                 model * * granular hooke 4000.0 100.0                     tangential linear_history 1000.0 1.0 0.5                     damping mass_velocity
Fix surface/global triangle creation:
  4 tris
  8 tri edges
  5 tri corner points
  4 edge connections
  2 corner point connections
  4 free edges
  0 free corner points
  8.48528137423857 min edge length
  12 max edge length
  36 min tri area
  36 max tri area

fix             2 all nve/sphere
fix             3 all gravity 1.0 vector 0 0 -1

region          slab block -2 2 -2 2 7 9 units box
fix             ins all pour 100 1 4767548 vol 0.4 10                 diam one 1.0 region slab ignore

region          zcylinder cylinder z 0 0 7.0 INF INF units box
fix             wall all wall/gran/region granular hooke 4000.0 100.0                          tangential linear_history 1000.0 1.0 0.5                          damping mass_velocity                          region zcylinder

timestep        0.005

compute         1 all temp
compute_modify  1 dynamic/dof yes

compute         2 all temp/sphere
compute_modify  2 dynamic/dof yes

thermo          100
thermo_style    custom step atoms temp c_1 c_2 press
thermo_modify   lost ignore
compute_modify  thermo_temp dynamic/dof yes

#dump           2 all image 100 tmp.image.*.ppm type type #               zoom 1.4 adiam 1.0 fix 20 type 2 0.5
#dump_modify        2 pad 5

run             5000
Generated 0 of 1 mixed pair_coeff terms from geometric mixing rule
Particle insertion: 24 every 400 steps, 100 by step 1601
Neighbor list info ...
  update: every = 1 steps, delay = 0 steps, check = yes
  max neighbors/atom: 2000, page size: 100000
  master list distance cutoff = 1.3
  ghost atom cutoff = 1.3
  binsize = 0.65, bins = 22 22 14
  1 neighbor lists, perpetual/occasional/extra = 1 0 0
  (1) pair granular, perpetual
      attributes: half, newton on, size, history
      pair build: half/size/bin/atomonly/newton
      stencil: half/bin/3d
      bin: standard
Per MPI rank memory allocation (min/avg/max) = 11.51 | 11.51 | 11.51 Mbytes
   Step        Atoms         Temp           c_1            c_2           Press     
         0           0   0              0              0              0            
       100          24   0.43156905     0.43156905     0.21119336     0.005627034  
       200          24   0.73291569     0.73291569     0.35866087     0.009556157  
       300          24   1.125323       1.125323       0.55068998     0.014672579  
       400          24   1.608791       1.608791       0.78728068     0.020976299  
WARNING: Fewer insertions than requested (src/GRANULAR/fix_pour.cpp:691)
       500          44   1.0436449      1.0436449      0.51675284     0.025440323  
       600          44   0.94588576     0.94588576     0.46980918     0.023057306  
       700          44   0.99723279     0.99723279     0.50102491     0.032319006  
       800          44   0.84127806     0.84127806     0.43234969     0.023327224  
       900          68   0.69776727     0.69776727     0.35867213     0.026910819  
      1000          68   0.78689153     0.78689153     0.4059512      0.029887604  
      1100          68   0.7080973      0.7080973      0.37060883     0.027262487  
      1200          68   0.60038428     0.60038428     0.3185384      0.059151992  
WARNING: Fewer insertions than requested (src/GRANULAR/fix_pour.cpp:691)
      1300          88   0.48090618     0.48090618     0.25720169     0.028181806  
      1400          88   0.53720904     0.53720904     0.28593154     0.033696449  
      1500          88   0.53410901     0.53410901     0.28416505     0.026415258  
      1600          88   0.48829853     0.48829853     0.26171208     0.025075777  
      1700          99   0.3940267      0.3940267      0.21222418     0.027574036  
      1800          99   0.31066255     0.31066255     0.17015018     0.019157024  
      1900          99   0.28443731     0.28443731     0.15704811     0.016657467  
      2000          99   0.23289429     0.23289429     0.13115729     0.013315139  
      2100          99   0.27358841     0.27358841     0.14869877     0.023474108  
      2200          99   0.17763553     0.17763553     0.1006937      0.031169933  
      2300          98   0.13695186     0.13695186     0.080020822    0.010795617  
      2400          98   0.068808391    0.068808391    0.044448881    0.008735486  
      2500          98   0.045530934    0.045530934    0.032213768    0.0020799908 
      2600          98   0.030930556    0.030930556    0.022876177    0.0019203678 
      2700          98   0.025590902    0.025590902    0.018714701    0.0037105908 
      2800          98   0.016522448    0.016522448    0.012886655    0.0027457533 
      2900          98   0.011802922    0.011802922    0.0094121527   0.0015839553 
      3000          98   0.010580431    0.010580431    0.0082595063   0.0027437305 
      3100          98   0.0084253051   0.0084253051   0.0067948675   0.0009896301 
      3200          98   0.0056531609   0.0056531609   0.0046246788   0.00073793253
      3300          98   0.0038680701   0.0038680701   0.0032914151   0.00071670564
      3400          98   0.002522434    0.002522434    0.0022622879   0.00058499723
      3500          98   0.0022922367   0.0022922367   0.0020989847   0.00050207483
      3600          98   0.0016164306   0.0016164306   0.0016285707   0.0025713328 
      3700          98   0.0013107181   0.0013107181   0.0013385077   0.00036282908
      3800          98   0.0012826429   0.0012826429   0.0013437602   0.000925448  
      3900          98   0.0011399582   0.0011399582   0.0011696576   0.00045124352
      4000          98   0.0010245722   0.0010245722   0.0010262903   0.00044905166
      4100          98   0.00090306307  0.00090306307  0.00092031981  0.00043627197
      4200          98   0.0008433646   0.0008433646   0.00086940049  0.0004457425 
      4300          98   0.00082717549  0.00082717549  0.00085644053  0.00045314225
      4400          98   0.00073063087  0.00073063087  0.00076635437  0.00071042198
      4500          98   0.00063196815  0.00063196815  0.00068677755  0.00038063376
      4600          98   0.00058141713  0.00058141713  0.00062917735  0.00048441244
      4700          98   0.00050000835  0.00050000835  0.00056049463  0.00051721033
      4800          98   0.00047958168  0.00047958168  0.00055082182  0.00039204192
      4900          98   0.00040818669  0.00040818669  0.00049256012  0.00055782213
      5000          98   0.00039132013  0.00039132013  0.00047656862  0.00044314513
Loop time of 0.0555483 on 4 procs for 5000 steps with 98 atoms

Performance: 38885078.741 tau/day, 90011.756 timesteps/s, 8.821 Matom-step/s
94.6% CPU use with 4 MPI tasks x 1 OpenMP threads

MPI task timing breakdown:
Section |  min time  |  avg time  |  max time  |%varavg| %total
---------------------------------------------------------------
Pair    | 0.0025338  | 0.002713   | 0.0030227  |   0.4 |  4.88
Neigh   | 0.00096464 | 0.0010015  | 0.0010543  |   0.1 |  1.80
Comm    | 0.01526    | 0.016556   | 0.017841   |   0.7 | 29.81
Output  | 0.00032547 | 0.00037887 | 0.00051522 |   0.0 |  0.68
Modify  | 0.028031   | 0.028955   | 0.029793   |   0.4 | 52.13
Other   |            | 0.005944   |            |       | 10.70

Nlocal:           24.5 ave          26 max          22 min
Histogram: 1 0 0 0 0 0 0 2 0 1
Nghost:           8.75 ave          11 max           7 min
Histogram: 2 0 0 0 0 0 0 1 0 1
Neighs:          39.25 ave          45 max          34 min
Histogram: 1 0 1 0 0 0 1 0 0 1

Total # of neighbors = 157
Ave neighs/atom = 1.6020408
Neighbor list builds = 316
Dangerous builds = 0

fix_modify      20 move * rotate 0 0 0 0 0 1 25
Fix_modify move:
  turned on motion for 4 surfs
run             5000
Generated 0 of 1 mixed pair_coeff terms from geometric mixing rule
Per MPI rank memory allocation (min/avg/max) = 17.2 | 17.2 | 17.2 Mbytes
   Step        Atoms         Temp           c_1            c_2           Press     
      5000          98   0.00039132013  0.00039132013  0.00047656862  0.00045786357
      5100          96   0.021979855    0.021979855    0.023650737    0.0027064294 
      5200          94   0.036223474    0.036223474    0.046430745    0.0019196418 
      5300          91   0.038992875    0.038992875    0.049046607    0.0020505874 
      5400          90   0.041006484    0.041006484    0.05071358     0.0026935204 
      5500          88   0.041256913    0.041256913    0.051560879    0.0020499166 
      5600          85   0.041168188    0.041168188    0.051157008    0.0019761488 
      5700          85   0.044774659    0.044774659    0.052876553    0.0022023295 
      5800          82   0.047561718    0.047561718    0.051433371    0.0022212334 
      5900          80   0.050176365    0.050176365    0.051913825    0.0022697746 
      6000          78   0.050657191    0.050657191    0.051560118    0.0024475423 
      6100          76   0.051604278    0.051604278    0.05089187     0.0022252084 
      6200          74   0.051263955    0.051263955    0.050033111    0.0021349213 
      6300          73   0.051518289    0.051518289    0.050630895    0.0021027873 
      6400          70   0.051193723    0.051193723    0.048561803    0.002819873  
      6500          69   0.051809635    0.051809635    0.049063052    0.0019927078 
      6600          68   0.051713176    0.051713176    0.049260129    0.0019641341 
      6700          67   0.052675267    0.052675267    0.049198711    0.0019585133 
      6800          66   0.053278476    0.053278476    0.049096134    0.0019632091 
      6900          64   0.051061854    0.051061854    0.047508239    0.0019407287 
      7000          64   0.051461607    0.051461607    0.047854745    0.0018558858 
      7100          64   0.055020876    0.055020876    0.049918729    0.0019650313 
      7200          62   0.054448074    0.054448074    0.049810563    0.0018830992 
      7300          61   0.052919097    0.052919097    0.049270155    0.001827584  
      7400          60   0.053961061    0.053961061    0.050323893    0.0018051345 
      7500          58   0.050019564    0.050019564    0.048110212    0.0016165841 
      7600          57   0.049662094    0.049662094    0.048826074    0.0015763192 
      7700          55   0.048085756    0.048085756    0.047555922    0.0014720129 
      7800          55   0.048239566    0.048239566    0.049004293    0.0014769795 
      7900          54   0.049223694    0.049223694    0.050043167    0.0014792101 
      8000          53   0.047709195    0.047709195    0.049681419    0.0014419465 
      8100          52   0.047498286    0.047498286    0.050971662    0.0013735289 
      8200          51   0.046740801    0.046740801    0.051543591    0.0013245965 
      8300          51   0.047092883    0.047092883    0.052654224    0.0013348323 
      8400          48   0.045620186    0.045620186    0.048742982    0.0012727043 
      8500          48   0.046573833    0.046573833    0.051009554    0.0012411795 
      8600          48   0.047347564    0.047347564    0.053479807    0.0012617862 
      8700          47   0.052276977    0.052276977    0.05545896     0.0011530711 
      8800          45   0.047570761    0.047570761    0.053720418    0.0011863171 
      8900          44   0.045589848    0.045589848    0.05294209     0.0011102244 
      9000          43   0.044780438    0.044780438    0.051869856    0.0010668661 
      9100          42   0.043392101    0.043392101    0.051818411    0.0011741997 
      9200          42   0.043757555    0.043757555    0.05333685     0.001017611  
      9300          42   0.044334058    0.044334058    0.055368291    0.0010313298 
      9400          41   0.044044107    0.044044107    0.05596137     0.00099873258
      9500          40   0.04389312     0.04389312     0.056276638    0.00097042612
      9600          39   0.044141971    0.044141971    0.057544477    0.00095141975
      9700          37   0.044676819    0.044676819    0.057451302    0.00091495126
      9800          36   0.042525796    0.042525796    0.057747478    0.00085380269
      9900          35   0.043974457    0.043974457    0.058522198    0.00084847324
     10000          32   0.040187756    0.040187756    0.052399912    0.00070624741
Loop time of 0.049903 on 4 procs for 5000 steps with 32 atoms

Performance: 43283961.363 tau/day, 100194.355 timesteps/s, 3.206 Matom-step/s
97.9% CPU use with 4 MPI tasks x 1 OpenMP threads

MPI task timing breakdown:
Section |  min time  |  avg time  |  max time  |%varavg| %total
---------------------------------------------------------------
Pair    | 0.0012505  | 0.0014953  | 0.0018821  |   0.6 |  3.00
Neigh   | 0.0007634  | 0.00078382 | 0.00083324 |   0.0 |  1.57
Comm    | 0.013348   | 0.013979   | 0.014425   |   0.3 | 28.01
Output  | 0.0002596  | 0.00032701 | 0.00042933 |   0.0 |  0.66
Modify  | 0.025011   | 0.02624    | 0.028968   |   1.0 | 52.58
Other   |            | 0.007077   |            |       | 14.18

Nlocal:              8 ave          11 max           6 min
Histogram: 1 0 1 0 1 0 0 0 0 1
Nghost:           3.25 ave           5 max           2 min
Histogram: 2 0 0 0 0 0 1 0 0 1
Neighs:            3.5 ave           8 max           1 min
Histogram: 1 1 1 0 0 0 0 0 0 1

Total # of neighbors = 14
Ave neighs/atom = 0.4375
Neighbor list builds = 333
Dangerous builds = 0

fix_modify      20 move * none
Fix_modify move:
  turned off motion for 0 surfs
run             5000
Generated 0 of 1 mixed pair_coeff terms from geometric mixing rule
Per MPI rank memory allocation (min/avg/max) = 17.2 | 17.2 | 17.2 Mbytes
   Step        Atoms         Temp           c_1            c_2           Press     
     10000          31   0.038559559    0.038559559    0.049142444    0.00065577481
     10100          31   0.01001355     0.01001355     0.010051233    5.2760534e-05
     10200          31   0.0028317879   0.0028317879   0.0036286602   4.8159658e-05
     10300          31   0.0023998291   0.0023998291   0.0033652401   4.081342e-05 
     10400          31   0.0023341799   0.0023341799   0.0034976824   4.162915e-05 
     10500          31   0.0022824036   0.0022824036   0.0036596963   3.8816388e-05
     10600          31   0.0022318245   0.0022318245   0.0038293765   3.7956199e-05
     10700          31   0.0019264929   0.0019264929   0.0037858      3.2763484e-05
     10800          31   0.0018342876   0.0018342876   0.0039194929   3.1195368e-05
     10900          31   0.0016668944   0.0016668944   0.0039804124   2.8348545e-05
     11000          31   0.0016098274   0.0016098274   0.0041219417   2.7378017e-05
     11100          31   0.0015692119   0.0015692119   0.0042603129   2.6687278e-05
     11200          31   0.0017306133   0.0017306133   0.00445764     2.9432199e-05
     11300          30   0.0013703888   0.0013703888   0.0027304383   2.2529067e-05
     11400          30   0.001240409    0.001240409    0.0027176213   2.3141093e-05
     11500          30   0.001247923    0.001247923    0.0027935441   2.0515742e-05
     11600          30   0.001212253    0.001212253    0.0027861397   1.9929329e-05
     11700          29   0.0010924052   0.0010924052   0.0013785816   1.7339765e-05
     11800          29   0.0011182888   0.0011182888   0.0014073924   1.7750616e-05
     11900          29   0.0011469768   0.0011469768   0.0014430732   1.8205981e-05
     12000          29   0.0011308602   0.0011308602   0.0014317917   1.7950163e-05
     12100          29   0.0011927399   0.0011927399   0.0015121665   1.8932379e-05
     12200          29   0.0012656311   0.0012656311   0.0016165279   2.0089383e-05
     12300          29   0.0013585925   0.0013585925   0.0017563868   2.156496e-05 
     12400          29   0.0015098809   0.0015098809   0.0019645117   2.3966364e-05
     12500          29   0.0018567595   0.0018567595   0.0023412209   2.9472373e-05
     12600          29   0.0019277444   0.0019277444   0.0025825945   3.0599117e-05
     12700          29   0.0028203212   0.0028203212   0.003428375    4.4767004e-05
     12800          29   0.0017091025   0.0017091025   0.0029169274   2.712861e-05 
     12900          29   0.0016837204   0.0016837204   0.0032066493   2.6725721e-05
     13000          29   0.0017211964   0.0017211964   0.0036339625   2.7320578e-05
     13100          29   0.0017766172   0.0017766172   0.0041118604   2.8200274e-05
     13200          29   0.0017561753   0.0017561753   0.0045035664   2.7875798e-05
     13300          29   0.0017845609   0.0017845609   0.0050187109   4.670334e-05 
     13400          29   0.0018022226   0.0018022226   0.0055744649   2.8606708e-05
     13500          29   0.0018028021   0.0018028021   0.0060896264   2.8615907e-05
     13600          29   0.0017412917   0.0017412917   0.0054383245   0.00012324821
     13700          29   0.0016907534   0.0016907534   0.0053960771   0.00014302393
     13800          29   0.0016388298   0.0016388298   0.0054330684   0.00013150079
     13900          29   0.0015620007   0.0015620007   0.0055875748   0.00010824717
     14000          29   0.0014528475   0.0014528475   0.0058116259   9.2935851e-05
     14100          29   0.0013657931   0.0013657931   0.0060804762   8.3704659e-05
     14200          29   0.0012869427   0.0012869427   0.0063865973   6.0839152e-05
     14300          29   0.00072146569  0.00072146569  0.0055430789   0.0001524906 
     14400          29   0.00062250621  0.00062250621  0.0055800001   0.00010027043
     14500          29   0.0007615015   0.0007615015   0.0058025841   9.9429774e-05
     14600          28   0.00069206515  0.00069206515  0.0032986402   9.9916709e-05
     14700          28   0.00056182665  0.00056182665  0.0032429441   0.00090376585
     14800          27   0.00045071605  0.00045071605  0.00060309093  6.5061694e-05
     14900          27   0.00044305357  0.00044305357  0.00059151793  6.3797684e-05
     15000          27   0.00044450474  0.00044450474  0.00059250959  6.0179741e-05
Loop time of 0.034102 on 4 procs for 5000 steps with 27 atoms

Performance: 63339472.986 tau/day, 146619.150 timesteps/s, 3.959 Matom-step/s
99.6% CPU use with 4 MPI tasks x 1 OpenMP threads

MPI task timing breakdown:
Section |  min time  |  avg time  |  max time  |%varavg| %total
---------------------------------------------------------------
Pair    | 0.00032723 | 0.00060559 | 0.0010232  |   0.0 |  1.78
Neigh   | 6.0248e-05 | 6.811e-05  | 7.7739e-05 |   0.0 |  0.20
Comm    | 0.0083962  | 0.010311   | 0.011793   |   1.2 | 30.24
Output  | 0.00025278 | 0.00037028 | 0.00057411 |   0.0 |  1.09
Modify  | 0.0077538  | 0.012492   | 0.019258   |   4.0 | 36.63
Other   |            | 0.01025    |            |       | 30.07

Nlocal:           6.75 ave          13 max           2 min
Histogram: 1 1 0 0 0 1 0 0 0 1
Nghost:           2.25 ave           3 max           1 min
Histogram: 1 0 0 0 0 1 0 0 0 2
Neighs:           4.75 ave          12 max           0 min
Histogram: 1 1 0 0 1 0 0 0 0 1

Total # of neighbors = 19
Ave neighs/atom = 0.7037037
Neighbor list builds = 37
Dangerous builds = 0
Total wall time: 0:00:00
