LAMMPS (4 Jul 2026 - Development - patch_4Jul2026-197-g34022a802c)
OMP_NUM_THREADS environment is not set. Defaulting to 1 thread.
  using 1 OpenMP thread(s) per MPI task
# pouring spheres into box made of triangles

units           lj
atom_style      tri
atom_modify     map array
boundary        f f f
dimension       3
comm_modify     vel yes cutoff 12.5

region          box block -10 10 -10 10 -10 10 units box
create_box      2 box
Created orthogonal box = (-10 -10 -10) to (10 10 10)
  1 by 2 by 2 MPI processor grid

fix             20 all surface/local input stl 2 1 surf.tribox.stl
Reading STL file for triangle particles ...
Reading STL object STL version of surf.tribox with 24 triangles from file surf.tribox.stl
Fix surface/local triangle creation:
  24 tris
  36 tri edges
  14 tri corner points
  36 edge connections
  84 corner point connections
  0 free edges
  0 free corner points
  8.485281374238568 min edge length
  12.000000000000005 max edge length
  35.999999999999986 min tri area
  36.000000000000036 max tri area

pair_style      hybrid granular surf/granular
pair_coeff      1 1 granular hooke 4000.0 100.0                          tangential linear_history 1000.0 1.0 0.5                          damping mass_velocity
pair_coeff      1 2 surf/granular hooke 4000.0 100.0                          tangential linear_history 1000.0 1.0 0.5                          damping mass_velocity
pair_coeff      2 2 none

group           sphere type 1
0 atoms in group sphere
group           tri type 2
24 atoms in group tri

neighbor        0.3 bin
neigh_modify    delay 0 every 1 check yes

fix             2 sphere nve/sphere
fix             3 sphere gravity 1.0 vector 0 0 -1

region          slab block -2 2 -2 2 -2 2 units box
fix             ins sphere pour 100 1 4767548 vol 0.4 10                 diam range 0.5 2.0 region slab ignore

timestep        0.005

compute         1 sphere temp
compute_modify  1 dynamic/dof yes

compute         2 sphere temp/sphere
compute_modify  2 dynamic/dof yes

thermo          100
thermo_style    custom step atoms temp c_1 c_2 press
thermo_modify   lost ignore
compute_modify  thermo_temp dynamic/dof yes

#dump            viz all image 100 tribox.surf-*.ppm type diameter #                    tri atom 1 0.2 size 800 800 zoom 1.6 shiny 0.3 #                    fsaa yes view 80 10 box yes 0.025 region slab blue frame 0.15
#dump_modify     viz pad 6 backcolor black backcolor2 white boxcolor gray #                    acolor 1 slategray acolor 2 forestgreen atrans 2 0.25 #                    lights 0.15 0.9 0.45 0.9

run             5000
Generated 0 of 1 mixed pair_coeff terms from geometric mixing rule
Particle insertion: 6 every 566 steps, 100 by step 9057
Neighbor list info ...
  update: every = 1 steps, delay = 0 steps, check = yes
  max neighbors/atom: 2000, page size: 100000
  master list distance cutoff = 7.6245553
  ghost atom cutoff = 12.5
  binsize = 3.8122777, bins = 6 6 6
  3 neighbor lists, perpetual/occasional/extra = 3 0 0
  (1) pair granular, perpetual, skip from (3)
      attributes: half, newton on, size, history, off2on
      pair build: skip/size/off2on
      stencil: none
      bin: none
  (2) pair surf/granular, perpetual, skip from (3)
      attributes: half, newton on, size, history, onesided, off2on
      pair build: skip/size/off2on/oneside
      stencil: none
      bin: none
  (3) neighbor class addition, perpetual
      attributes: half, newton off, size, history
      pair build: half/size/bin/atomonly/newtoff
      stencil: full/bin/3d
      bin: standard
Per MPI rank memory allocation (min/avg/max) = 19.01 | 19.01 | 19.01 Mbytes
   Step        Atoms         Temp           c_1            c_2           Press     
         0          24   0              0              0              0            
       100          30   0.059189894    0.34330139     0.15604608     0.00021456337
       200          30   0.11993596     0.69562856     0.3161948      0.00043476785
       300          30   0.20280707     1.176281       0.5346732      0.00073517565
       400          30   0.30780324     1.7852588      0.81148128     0.0011157868 
       500          30   0.41966116     2.4340347      1.1063794      0.0015212717 
       600          36   0.8228065      2.6180207      1.2520968      0.0035997784 
       700          36   0.70048249     2.2288079      1.0659516      0.0031468067 
       800          36   0.84885713     2.700909       1.2932891      0.003815425  
       900          36   0.48948975     1.5574674      0.80994809     0.0077469864 
      1000          36   0.47726451     1.5185689      0.78514486     0.0020805293 
      1100          36   0.40430255     1.2864172      0.6840083      0.0019863346 
      1200          42   0.45943843     1.1080574      0.57854707     0.0027419576 
      1300          42   0.27199232     0.65598148     0.35810239     0.0029022306 
      1400          42   0.39694782     0.95734474     0.50363154     0.0025912264 
      1500          42   0.51332465     1.2380183      0.64395079     0.0031816572 
      1600          42   0.64137514     1.5468459      0.78599316     0.0039375796 
      1700          48   0.61658573     1.2599795      0.65452036     0.0024901186 
      1800          48   0.31316908     0.63995421     0.35578126     0.0076007869 
      1900          48   0.42198636     0.86231996     0.46479994     0.0031781025 
      2000          48   0.52925649     1.0815241      0.57226186     0.0048922063 
      2100          48   0.32867311     0.67163636     0.36755099     0.0026587532 
      2200          48   0.37422206     0.76471464     0.40682801     0.0025076922 
      2300          54   0.62483487     1.1419396      0.58502932     0.0052017037 
      2400          54   0.48665163     0.88939781     0.46123649     0.0041344328 
      2500          54   0.38918142     0.71126259     0.37880411     0.003703454  
      2600          54   0.48302697     0.88277342     0.46510793     0.035626788  
      2700          54   0.26899233     0.49160667     0.28017866     0.0076525308 
      2800          54   0.37135377     0.67868102     0.39998187     0.0029045592 
      2900          60   0.38282621     0.64533561     0.37868276     0.0055358483 
      3000          60   0.45620003     0.76902291     0.4401739      0.0048464034 
      3100          60   0.4054912      0.68354232     0.40694384     0.0046450261 
      3200          60   0.32830439     0.55342739     0.34125516     0.0036754309 
      3300          60   0.16648374     0.28064403     0.18221371     0.0085117271 
      3400          66   0.16934974     0.26848129     0.16503735     0.0027792548 
      3500          66   0.27229081     0.43168054     0.2583287      0.0038491366 
      3600          66   0.22569984     0.35781682     0.21845992     0.0041376787 
      3700          66   0.26266248     0.41641613     0.24429144     0.0042113889 
      3800          66   0.34142695     0.54128662     0.30326704     0.0047131663 
      3900          66   0.36308165     0.57561725     0.32421705     0.0048361144 
      4000          72   0.28609293     0.43218293     0.24351361     0.016179095  
      4100          72   0.33307468     0.50315537     0.27966406     0.0069773236 
      4200          72   0.35777967     0.54047568     0.2988227      0.012040914  
      4300          72   0.17959982     0.27131037     0.16003142     0.0039430444 
      4400          72   0.21454918     0.32410621     0.19769928     0.0038893665 
      4500          72   0.15489485     0.23399009     0.15281695     0.0038019298 
      4600          78   0.28888825     0.41970557     0.24072394     0.0046158932 
      4700          78   0.35908491     0.52168939     0.28837292     0.0064086331 
      4800          78   0.12414641     0.18036365     0.1293403      0.0055872454 
      4900          78   0.1422152      0.20661453     0.14295491     0.0036836863 
      5000          78   0.10690576     0.15531592     0.11615633     0.0062736711 
Loop time of 0.0690599 on 4 procs for 5000 steps with 78 atoms

Performance: 31277206.916 tau/day, 72400.942 timesteps/s, 5.647 Matom-step/s
98.5% CPU use with 4 MPI tasks x 1 OpenMP threads

MPI task timing breakdown:
Section |  min time  |  avg time  |  max time  |%varavg| %total
---------------------------------------------------------------
Pair    | 0.0015815  | 0.012734   | 0.02687    |  10.1 | 18.44
Neigh   | 0.001228   | 0.0019903  | 0.0029901  |   1.5 |  2.88
Comm    | 0.028844   | 0.044307   | 0.05816    |   6.2 | 64.16
Output  | 0.00027194 | 0.00031407 | 0.00041362 |   0.0 |  0.45
Modify  | 0.0036454  | 0.0052599  | 0.0066503  |   1.7 |  7.62
Other   |            | 0.004454   |            |       |  6.45

Nlocal:           19.5 ave          37 max           6 min
Histogram: 1 1 0 0 0 0 1 0 0 1
Nghost:           58.5 ave          72 max          41 min
Histogram: 1 0 0 1 0 0 0 0 1 1
Neighs:              0 ave           0 max           0 min
Histogram: 4 0 0 0 0 0 0 0 0 0

Total # of neighbors = 0
Ave neighs/atom = 0
Neighbor list builds = 511
Dangerous builds = 0

fix             1 tri move rotate 0 0 0 0 0 1 25
run             5000
Generated 0 of 1 mixed pair_coeff terms from geometric mixing rule
Per MPI rank memory allocation (min/avg/max) = 19.93 | 19.94 | 19.95 Mbytes
   Step        Atoms         Temp           c_1            c_2           Press     
      5000          78   0.10690576     0.15531592     0.11615633     0.0058844978 
      5100          84   8.0032876      0.56998027     0.33404524     0.085186121  
      5200          84   7.9950794      0.55843316     0.33651848     0.085396012  
      5300          84   7.9065305      0.43386431     0.26502508     0.087119397  
      5400          84   7.8974885      0.42114419     0.25375983     0.087487112  
      5500          84   7.9040426      0.43036449     0.2551674      0.085597827  
      5600          90   7.4752278      0.53309604     0.29993741     0.093736498  
      5700          90   7.5218875      0.59698387     0.33340772     0.09204984   
      5800          90   7.6074529      0.71414273     0.42663793     0.088484748  
      5900          90   7.5192936      0.59343224     0.35273032     0.099069188  
      6000          90   7.5628581      0.65308206     0.37247865     0.08831274   
      6100          90   7.9753928      1.2179373      0.7122209      0.092996349  
      6200          96   7.447386       1.0825019      0.63263432     0.099026923  
      6300          96   7.4235473      1.0506051      0.60886374     0.094541423  
      6400          96   7.4423936      1.075822       0.61590533     0.09215009   
      6500          96   7.2065574      0.76026641     0.41014134     0.097206681  
      6600          96   7.2130297      0.76892664     0.41064415     0.093966281  
      6700         102   7.1258144      1.1566652      0.63091248     0.12307039   
      6800         102   6.9758509      0.9599598      0.52399039     0.092413916  
      6900         102   6.9899057      0.97839538     0.52972095     0.098735875  
      7000         102   6.9311338      0.90130489     0.49139196     0.11352699   
      7100         102   6.9046895      0.86661823     0.4759381      0.099199281  
      7200         102   6.9428595      0.91668533     0.4889914      0.092713451  
      7300         108   6.7258596      1.0725656      0.56328908     0.09534589   
      7400         108   6.5884488      0.89542148     0.46418902     0.10015356   
      7500         108   6.6409201      0.96306522     0.50015548     0.10895343   
      7600         108   6.4807374      0.75656471     0.39788928     0.10095668   
      7700         108   6.4814661      0.75750404     0.39668358     0.094854414  
      7800         108   6.5180166      0.80462345     0.43493752     0.10005525   
      7900         114   6.2157581      0.80602958     0.43926559     0.11424862   
      8000         114   6.2203387      0.8118454      0.44099681     0.09710836   
      8100         114   6.1265183      0.69272504     0.38238372     0.10292211   
      8200         114   6.1361783      0.70499006     0.38277305     0.092813606  
      8300         114   6.1653575      0.74203779     0.39809819     0.095897956  
      8400         120   6.1341951      1.0455282      0.5559626      0.11057781   
      8500         120   6.1163617      1.0231895      0.53953066     0.10356688   
      8600         120   6.1048521      1.0087723      0.5313514      0.10563082   
      8700         120   6.1258916      1.0351271      0.57744277     0.12187825   
      8800         120   5.9881208      0.86255092     0.48976479     0.10735037   
      8900         120   5.9861401      0.86006982     0.48538545     0.10034146   
      9000         124   5.7292398      0.74800465     0.42756068     0.10133782   
      9100         124   5.7140431      0.72912387     0.40897119     0.10012462   
      9200         124   5.7303343      0.74936449     0.41705109     0.099773471  
      9300         124   5.7701341      0.79881273     0.43986395     0.10571495   
      9400         124   5.6832945      0.69092112     0.38674621     0.10034382   
      9500         124   5.6736166      0.67889699     0.37997862     0.10372866   
      9600         124   5.6749064      0.68049955     0.37948858     0.097031272  
      9700         124   5.7720776      0.80122739     0.50566675     0.10034476   
      9800         124   5.7336023      0.75342473     0.46998005     0.11042905   
      9900         124   6.2798537      1.4321007      0.86749037     0.12130456   
     10000         124   6.231231       1.3716907      0.82599395     0.1086245    
Loop time of 0.166497 on 4 procs for 5000 steps with 124 atoms

Performance: 12973189.914 tau/day, 30030.532 timesteps/s, 3.724 Matom-step/s
97.3% CPU use with 4 MPI tasks x 1 OpenMP threads

MPI task timing breakdown:
Section |  min time  |  avg time  |  max time  |%varavg| %total
---------------------------------------------------------------
Pair    | 0.0053667  | 0.051009   | 0.096952   |  20.1 | 30.64
Neigh   | 0.0025621  | 0.0066716  | 0.010812   |   5.0 |  4.01
Comm    | 0.041778   | 0.093386   | 0.14505    |  16.6 | 56.09
Output  | 0.00031399 | 0.00035843 | 0.00045487 |   0.0 |  0.22
Modify  | 0.0059977  | 0.0091302  | 0.012031   |   2.6 |  5.48
Other   |            | 0.005941   |            |       |  3.57

Nlocal:             31 ave          55 max           8 min
Histogram: 2 0 0 0 0 0 0 0 0 2
Nghost:             93 ave         116 max          69 min
Histogram: 2 0 0 0 0 0 0 0 0 2
Neighs:              0 ave           0 max           0 min
Histogram: 4 0 0 0 0 0 0 0 0 0

Total # of neighbors = 0
Ave neighs/atom = 0
Neighbor list builds = 612
Dangerous builds = 9

unfix           1
set             group tri angmom 0.0 0.0 0.0
Setting atom values ...
  24 settings made for angmom
velocity        tri set 0.0 0.0 0.0
run             5000
Generated 0 of 1 mixed pair_coeff terms from geometric mixing rule
Per MPI rank memory allocation (min/avg/max) = 19.09 | 19.13 | 19.17 Mbytes
   Step        Atoms         Temp           c_1            c_2           Press     
     10000         124   1.1040437      1.3716907      0.82599395     0.044696645  
     10100         124   0.7031255      0.87358017     0.5638073      0.019840339  
     10200         124   0.27155722     0.33738928     0.23825316     0.018042623  
     10300         124   0.1598416      0.19859108     0.15050548     0.010768715  
     10400         124   0.14326977     0.17800184     0.1359647      0.013064111  
     10500         124   0.13304087     0.16529321     0.12219318     0.013428896  
     10600         124   0.090655043    0.11263202     0.084637639    0.028120722  
     10700         124   0.069121949    0.085878785    0.066207911    0.015142581  
     10800         124   0.14819735     0.18412398     0.1290237      0.020793833  
     10900         124   0.12486536     0.15513575     0.10778469     0.021211969  
     11000         124   0.19340206     0.24028741     0.16298339     0.012835808  
     11100         124   0.19296911     0.23974951     0.15817605     0.010814051  
     11200         124   0.07101797     0.088234448    0.081115829    0.0097195545 
     11300         124   0.049344041    0.061306232    0.063931674    0.014186812  
     11400         124   0.02576547     0.032011644    0.043224174    0.0089087352 
     11500         124   0.020278932    0.025195036    0.035275965    0.0085187341 
     11600         124   0.03579373     0.044470998    0.045870072    0.027089953  
     11700         124   0.3076482      0.38222958     0.24617357     0.071064681  
     11800         124   0.1470015      0.18263822     0.14659045     0.014339367  
     11900         124   0.093295499    0.11591259     0.10428471     0.012159421  
     12000         124   0.073421939    0.091221197    0.086753359    0.026194891  
     12100         124   0.72579808     0.90174914     0.6175661      0.024099741  
     12200         124   0.61912381     0.76921443     0.53785267     0.022411296  
     12300         124   0.49957649     0.62068594     0.45139122     0.02807064   
     12400         124   0.069873446    0.086812463    0.084237844    0.013715412  
     12500         124   0.075579819    0.093902199    0.085318627    0.0098553206 
     12600         124   0.084940909    0.10553264     0.084684205    0.016143374  
     12700         124   0.099943112    0.12417175     0.092742266    0.012622874  
     12800         124   0.13355998     0.16593816     0.12300851     0.017506202  
     12900         124   0.11748322     0.145964       0.10905336     0.016407933  
     13000         124   0.1463802      0.18186631     0.12587595     0.013789189  
     13100         124   0.18475026     0.22953821     0.14627347     0.014905991  
     13200         124   0.19990441     0.24836608     0.15263897     0.039830151  
     13300         124   0.022167456    0.027541385    0.030084089    0.013492818  
     13400         124   0.014854701    0.01845584     0.023895904    0.011373205  
     13500         124   0.01474211     0.018315955    0.022476596    0.016610535  
     13600         124   0.015255166    0.018953388    0.021062681    0.015490594  
     13700         124   0.33987908     0.422274       0.23740622     0.019198464  
     13800         124   0.27919006     0.3468725      0.1963933      0.014950223  
     13900         124   0.22849242     0.28388453     0.16344083     0.012425808  
     14000         124   0.20349406     0.25282595     0.14796444     0.012679005  
     14100         124   0.014941619    0.018563829    0.020322258    0.016500015  
     14200         124   0.013419045    0.016672147    0.013402779    0.0080085544 
     14300         124   0.017483527    0.021721958    0.015949267    0.009283168  
     14400         124   0.031504395    0.039141824    0.024736759    0.010451586  
     14500         124   0.040993735    0.05093161     0.028999112    0.0094803537 
     14600         124   0.063176199    0.078491641    0.042262984    0.013555324  
     14700         124   0.085095348    0.10572452     0.054943796    0.010408813  
     14800         124   0.11018873     0.13690115     0.069863097    0.012120655  
     14900         124   0.15335089     0.19052686     0.10043371     0.015271658  
     15000         124   0.042805938    0.053183135    0.035502326    0.011595235  
Loop time of 0.17878 on 4 procs for 5000 steps with 124 atoms

Performance: 12081874.044 tau/day, 27967.301 timesteps/s, 3.468 Matom-step/s
96.7% CPU use with 4 MPI tasks x 1 OpenMP threads

MPI task timing breakdown:
Section |  min time  |  avg time  |  max time  |%varavg| %total
---------------------------------------------------------------
Pair    | 0.0018035  | 0.050878   | 0.10332    |  21.7 | 28.46
Neigh   | 0.0027626  | 0.0077277  | 0.012941   |   5.6 |  4.32
Comm    | 0.045388   | 0.10285    | 0.15984    |  17.3 | 57.53
Output  | 0.00040947 | 0.0004724  | 0.00058607 |   0.0 |  0.26
Modify  | 0.0052814  | 0.009516   | 0.01324    |   3.5 |  5.32
Other   |            | 0.007334   |            |       |  4.10

Nlocal:             31 ave          57 max           8 min
Histogram: 2 0 0 0 0 0 0 0 1 1
Nghost:             93 ave         116 max          67 min
Histogram: 1 1 0 0 0 0 0 0 0 2
Neighs:              0 ave           0 max           0 min
Histogram: 4 0 0 0 0 0 0 0 0 0

Total # of neighbors = 0
Ave neighs/atom = 0
Neighbor list builds = 717
Dangerous builds = 14

fix             1 tri move rotate 0 0 0 1 1 1 25
run             5000
Generated 0 of 1 mixed pair_coeff terms from geometric mixing rule
Per MPI rank memory allocation (min/avg/max) = 19.97 | 20.01 | 20.04 Mbytes
   Step        Atoms         Temp           c_1            c_2           Press     
     15000         124   0.042805938    0.053183135    0.035502326    0.011598376  
     15100         124   5.4707991      0.42691172     0.23575823     0.10143487   
     15200         124   5.5131225      0.47949529     0.26325547     0.10561634   
     15300         124   5.547629       0.52236696     0.29067561     0.097446088  
     15400         124   5.5630255      0.54149595     0.29800164     0.10663719   
     15500         124   5.5777414      0.55977938     0.30413608     0.11763888   
     15600         124   5.5983969      0.58544229     0.31744931     0.11322891   
     15700         124   5.621321       0.61392371     0.3255103      0.12519561   
     15800         124   5.6420125      0.63963131     0.34317117     0.1188441    
     15900         124   5.6567435      0.65793349     0.34787964     0.12476445   
     16000         124   5.6600195      0.66200367     0.34888775     0.12258964   
     16100         124   5.657852       0.6593107      0.34551512     0.11922256   
     16200         124   5.6222987      0.61513849     0.32489039     0.10290884   
     16300         124   5.6001809      0.58765881     0.31262362     0.11589206   
     16400         124   5.6128829      0.60344004     0.32281787     0.13160113   
     16500         124   5.6255633      0.61919447     0.3349212      0.12617998   
     16600         124   5.5915726      0.57696363     0.32506981     0.10224477   
     16700         124   5.5985615      0.58564677     0.330734       0.095761551  
     16800         124   5.6022907      0.59028007     0.34656844     0.10161382   
     16900         124   5.6106434      0.60065766     0.35143034     0.10250149   
     17000         124   5.7471904      0.77030693     0.47945815     0.11537894   
     17100         124   5.7424516      0.76441936     0.45889287     0.098672934  
     17200         124   5.7623496      0.78914113     0.48023029     0.091416569  
     17300         124   5.8374015      0.88238742     0.57988556     0.11575557   
     17400         124   5.8395889      0.8851051      0.57057773     0.11718901   
     17500         124   5.9425884      1.0130741      0.64462528     0.10843438   
     17600         124   5.873591       0.92735006     0.58627209     0.1190448    
     17700         124   5.8349957      0.87939837     0.55531975     0.14202461   
     17800         124   5.8150376      0.8546019      0.54226884     0.12541245   
     17900         124   5.7674172      0.79543724     0.50432775     0.10831118   
     18000         124   5.7748018      0.80461198     0.49246061     0.095843747  
     18100         124   5.7363514      0.75684024     0.46053599     0.10185289   
     18200         124   5.6665374      0.67010166     0.41303008     0.11036944   
     18300         124   5.6317999      0.62694299     0.38503608     0.11478686   
     18400         124   5.7321546      0.75162608     0.45802536     0.11628007   
     18500         124   5.6411704      0.63858506     0.40318541     0.10646823   
     18600         124   5.6232245      0.61628873     0.39791502     0.094636897  
     18700         124   5.6364561      0.63272791     0.41172884     0.10061646   
     18800         124   5.6945001      0.70484316     0.44723683     0.093882237  
     18900         124   5.6855701      0.69374833     0.44471484     0.094119829  
     19000         124   5.6217154      0.61441373     0.4000613      0.13343627   
     19100         124   5.6709388      0.67557005     0.42476845     0.095449826  
     19200         124   5.639696       0.63675323     0.39241127     0.099109082  
     19300         124   5.6631471      0.66588947     0.40095296     0.14737451   
     19400         124   5.7063997      0.71962757     0.42245227     0.098486007  
     19500         124   5.7290258      0.74773872     0.43457432     0.10822586   
     19600         124   5.7226405      0.73980552     0.4182368      0.15431877   
     19700         123   5.7801185      0.76051447     0.4495507      0.099042494  
     19800         123   5.7371648      0.7070415      0.41999694     0.09925748   
     19900         123   5.6920153      0.65083502     0.37712338     0.10983695   
     20000         123   5.7595839      0.73495107     0.41802339     0.11667857   
Loop time of 0.159755 on 4 procs for 5000 steps with 123 atoms

Performance: 13520677.764 tau/day, 31297.865 timesteps/s, 3.850 Matom-step/s
96.0% CPU use with 4 MPI tasks x 1 OpenMP threads

MPI task timing breakdown:
Section |  min time  |  avg time  |  max time  |%varavg| %total
---------------------------------------------------------------
Pair    | 0.0080444  | 0.045822   | 0.08454    |  16.5 | 28.68
Neigh   | 0.0023657  | 0.0071186  | 0.011837   |   5.1 |  4.46
Comm    | 0.048959   | 0.091269   | 0.13379    |  13.5 | 57.13
Output  | 0.00034725 | 0.00040727 | 0.00052636 |   0.0 |  0.25
Modify  | 0.0058633  | 0.0090105  | 0.012504   |   3.0 |  5.64
Other   |            | 0.006128   |            |       |  3.84

Nlocal:          30.75 ave          57 max           8 min
Histogram: 2 0 0 0 0 0 0 0 1 1
Nghost:          92.25 ave         115 max          66 min
Histogram: 1 1 0 0 0 0 0 0 0 2
Neighs:              0 ave           0 max           0 min
Histogram: 4 0 0 0 0 0 0 0 0 0

Total # of neighbors = 0
Ave neighs/atom = 0
Neighbor list builds = 499
Dangerous builds = 9

unfix           1
set             group tri angmom 0.0 0.0 0.0
Setting atom values ...
  24 settings made for angmom
velocity        tri set 0.0 0.0 0.0
run             5000
Generated 0 of 1 mixed pair_coeff terms from geometric mixing rule
Per MPI rank memory allocation (min/avg/max) = 19.1 | 19.14 | 19.17 Mbytes
   Step        Atoms         Temp           c_1            c_2           Press     
     20000         123   0.59037053     0.73495107     0.41802339     0.015555227  
     20100         123   0.58037536     0.7225081      0.49006346     0.10662804   
     20200         123   0.3817326      0.47521813     0.32444715     0.020316809  
     20300         123   0.46544432     0.57943068     0.38570504     0.038241306  
     20400         123   0.42085842     0.52392579     0.35176118     0.016431997  
     20500         123   0.38323385     0.47708704     0.32840296     0.030872474  
     20600         123   0.34060463     0.42401801     0.30720537     0.023913786  
     20700         123   0.29189419     0.36337848     0.27925071     0.018697229  
     20800         122   0.34443799     0.42965976     0.34348255     0.019937772  
     20900         122   0.3139692      0.3916523      0.31854153     0.023008379  
     21000         122   0.23847697     0.29748158     0.2453003      0.012101142  
     21100         122   0.28595418     0.35670572     0.27700345     0.011153507  
     21200         122   0.16461985     0.20535054     0.1765406      0.0169486    
     21300         122   0.13446571     0.16773558     0.15082103     0.015929287  
     21400         122   0.13182393     0.16444016     0.14124123     0.02022062   
     21500         122   0.12073536     0.15060803     0.12579811     0.014795274  
     21600         122   0.12376827     0.15439135     0.11049645     0.016372713  
     21700         122   0.13298365     0.16588682     0.11052122     0.015449954  
     21800         122   0.084039605    0.10483291     0.071199225    0.011051073  
     21900         122   0.063994888    0.079828674    0.055593319    0.017665094  
     22000         122   0.059604106    0.074351513    0.050468812    0.011506714  
     22100         122   0.036884965    0.046011142    0.035686162    0.023379575  
     22200         122   0.35475905     0.44253449     0.27618255     0.020169989  
     22300         122   0.27886688     0.34786487     0.22664965     0.014335259  
     22400         122   0.22852391     0.28506591     0.19281832     0.014624488  
     22500         122   0.18498683     0.23075676     0.16406239     0.012778453  
     22600         122   0.02961702     0.036944942    0.042451951    0.0098232105 
     22700         122   0.018176106    0.022673287    0.035422095    0.010726281  
     22800         122   0.018322092    0.022855393    0.031708951    0.014160433  
     22900         122   0.03077887     0.038394261    0.038620676    0.01213401   
     23000         122   0.04846157     0.060452062    0.04850059     0.012927876  
     23100         122   0.040529512    0.050557433    0.039312318    0.010554956  
     23200         122   0.055155076    0.068801692    0.047894262    0.010442597  
     23300         122   0.066036042    0.082374856    0.050332263    0.015167931  
     23400         122   0.086466474    0.10786024     0.061158429    0.015280823  
     23500         122   0.011495638    0.01433992     0.01414616     0.015117271  
     23600         122   0.0082192819   0.010252919    0.011374743    0.011356329  
     23700         122   0.0049512339   0.0061762815   0.0068544793   0.01694429   
     23800         122   0.003998345    0.0049876263   0.0053619889   0.016560709  
     23900         122   0.0039747943   0.0049582486   0.0047143344   0.01488471   
     24000         122   0.004844772    0.0060434785   0.0053846451   0.013201084  
     24100         122   0.045079711    0.056233454    0.033526484    0.013369104  
     24200         122   0.026936918    0.033601723    0.022324091    0.013988978  
     24300         122   0.014879262    0.018560729    0.014407372    0.013539017  
     24400         122   0.0076635753   0.0095597176   0.01007556     0.012244652  
     24500         122   0.0058318978   0.0072748416   0.0088318528   0.011904165  
     24600         122   0.0088705324   0.011065303    0.010490702    0.01704102   
     24700         122   0.017505405    0.021836639    0.015915375    0.012440856  
     24800         122   0.030494427    0.03803944     0.024053575    0.011410239  
     24900         122   0.0054678012   0.0068206592   0.0073971224   0.010818841  
     25000         122   0.0064838115   0.0080880535   0.0079728682   0.010216001  
Loop time of 0.164069 on 4 procs for 5000 steps with 122 atoms

Performance: 13165175.883 tau/day, 30474.944 timesteps/s, 3.718 Matom-step/s
96.0% CPU use with 4 MPI tasks x 1 OpenMP threads

MPI task timing breakdown:
Section |  min time  |  avg time  |  max time  |%varavg| %total
---------------------------------------------------------------
Pair    | 0.0011177  | 0.049616   | 0.10745    |  21.9 | 30.24
Neigh   | 0.0013902  | 0.0050441  | 0.0097343  |   5.1 |  3.07
Comm    | 0.030591   | 0.095716   | 0.14999    |  17.3 | 58.34
Output  | 0.0003054  | 0.00036649 | 0.00046542 |   0.0 |  0.22
Modify  | 0.003366   | 0.0068728  | 0.010457   |   3.5 |  4.19
Other   |            | 0.006454   |            |       |  3.93

Nlocal:           30.5 ave          60 max           5 min
Histogram: 2 0 0 0 0 0 0 0 1 1
Nghost:           91.5 ave         117 max          62 min
Histogram: 1 1 0 0 0 0 0 0 0 2
Neighs:              0 ave           0 max           0 min
Histogram: 4 0 0 0 0 0 0 0 0 0

Total # of neighbors = 0
Ave neighs/atom = 0
Neighbor list builds = 447
Dangerous builds = 29

Total wall time: 0:00:00
