LAMMPS (4 Jul 2026 - Development - patch_4Jul2026-197-g34022a802c)
OMP_NUM_THREADS environment is not set. Defaulting to 1 thread.
  using 1 OpenMP thread(s) per MPI task
# pouring spheres into box made of triangles

units           lj
atom_style      sphere
boundary        f f f
dimension       3
comm_modify     vel yes

region          box block -10 10 -10 10 -10 10 units box
create_box      2 box   # simply for dump_modify to color lines = green
Created orthogonal box = (-10 -10 -10) to (10 10 10)
  1 by 1 by 1 MPI processor grid

pair_style      granular
pair_coeff      * * hooke 4000.0 100.0                     tangential linear_history 1000.0 1.0 0.5                     damping mass_velocity

neighbor        0.3 bin
neigh_modify    delay 0 every 1 check yes

molecule        tris surf.tribox
Read molecule template tris:
LAMMPS data file for tri box
  1 molecules
  0 fragments
  0 bodies
  0 atoms with max type 0
  0 bonds with max type 0
  0 angles with max type 0
  0 dihedrals with max type 0
  0 impropers with max type 0
  24 triangles

fix             20 all surface/global input mol tris                 model * * granular hooke 4000.0 100.0                     tangential linear_history 1000.0 1.0 0.5                     damping mass_velocity
Fix surface/global triangle creation:
  24 tris
  36 tri edges
  14 tri corner points
  36 edge connections
  84 corner point connections
  0 free edges
  0 free corner points
  8.48528137423857 min edge length
  12 max edge length
  36 min tri area
  36 max tri area

fix             2 all nve/sphere
fix             3 all gravity 1.0 vector 0 0 -1

region          slab block -2 2 -2 2 -2 2 units box
fix             ins all pour 100 1 4767548 vol 0.4 10                 diam one 1.0 region slab ignore

timestep        0.005

compute         1 all temp
compute_modify  1 dynamic/dof yes

compute         2 all temp/sphere
compute_modify  2 dynamic/dof yes

thermo          100
thermo_style    custom step atoms temp c_1 c_2 press
thermo_modify   lost ignore
compute_modify  thermo_temp dynamic/dof yes

#dump           2 all image 100 tmp.image.*.ppm type type #               zoom 1.4 adiam 1.0 fix 20 type 2 0.5
#dump_modify        2 pad 5

run             5000
Generated 0 of 1 mixed pair_coeff terms from geometric mixing rule
Particle insertion: 48 every 566 steps, 100 by step 1133
Neighbor list info ...
  update: every = 1 steps, delay = 0 steps, check = yes
  max neighbors/atom: 2000, page size: 100000
  master list distance cutoff = 1.3
  ghost atom cutoff = 1.3
  binsize = 0.65, bins = 31 31 31
  1 neighbor lists, perpetual/occasional/extra = 1 0 0
  (1) pair granular, perpetual
      attributes: half, newton on, size, history
      pair build: half/size/bin/atomonly/newton
      stencil: half/bin/3d
      bin: standard
Per MPI rank memory allocation (min/avg/max) = 11.66 | 11.66 | 11.66 Mbytes
   Step        Atoms         Temp           c_1            c_2           Press     
         0           0   0              0              0              0            
WARNING: Fewer insertions than requested (src/GRANULAR/fix_pour.cpp:691)
       100          30   0.803783       0.803783       0.39507978     0.0029137134 
       200          30   1.1967995      1.1967995      0.5882574      0.0043383984 
       300          30   1.2814686      1.2814686      0.62987441     0.0046453238 
       400          30   0.82831733     0.82831733     0.4099129      0.0030026503 
       500          30   0.83212308     0.83212308     0.4151854      0.0036386707 
WARNING: Fewer insertions than requested (src/GRANULAR/fix_pour.cpp:691)
       600          64   0.51244801     0.51244801     0.26324732     0.0040355281 
       700          64   0.58463368     0.58463368     0.29927695     0.0077364467 
       800          64   0.62279618     0.62279618     0.31820922     0.004914821  
       900          64   0.53272146     0.53272146     0.27927993     0.0041951815 
      1000          64   0.48924648     0.48924648     0.25803281     0.003982541  
      1100          64   0.50058399     0.50058399     0.26562484     0.009853843  
WARNING: Fewer insertions than requested (src/GRANULAR/fix_pour.cpp:691)
      1200          99   0.45803354     0.45803354     0.24120399     0.0079284529 
      1300          99   0.43484749     0.43484749     0.22966323     0.0056127167 
      1400          99   0.40288704     0.40288704     0.21364822     0.0078674873 
      1500          99   0.3473396      0.3473396      0.1861633      0.0067153198 
      1600          99   0.28819242     0.28819242     0.15821974     0.0052080425 
      1700         100   0.2157882      0.2157882      0.11971616     0.0093225263 
      1800         100   0.15176267     0.15176267     0.087527413    0.0017138489 
      1900         100   0.098050503    0.098050503    0.060796652    0.0012852243 
      2000         100   0.077673957    0.077673957    0.049226415    0.0023376895 
      2100         100   0.061440102    0.061440102    0.039118558    0.00091227102
      2200         100   0.055162318    0.055162318    0.034488722    0.0012564497 
      2300         100   0.029039139    0.029039139    0.020373384    0.00041283483
      2400         100   0.022316799    0.022316799    0.016231316    0.0010955566 
      2500         100   0.013697695    0.013697695    0.010101374    0.00098723064
      2600         100   0.010352708    0.010352708    0.0077923247   0.00075667753
      2700         100   0.0068929102   0.0068929102   0.0051849618   0.00019286655
      2800         100   0.0040938842   0.0040938842   0.0034465493   0.00058507401
      2900         100   0.0033871395   0.0033871395   0.0028806386   0.00017012595
      3000         100   0.003771765    0.003771765    0.0030023583   0.00018491546
      3100         100   0.0038634312   0.0038634312   0.0028733526   0.00013771255
      3200         100   0.0022749303   0.0022749303   0.0019255531   0.00016415776
      3300         100   0.002142107    0.002142107    0.0018276164   7.2861026e-05
      3400         100   0.0018599133   0.0018599133   0.001617257    6.1315924e-06
      3500         100   0.0014360561   0.0014360561   0.0012820175   0.00010043986
      3600         100   0.0012211007   0.0012211007   0.0011009595   5.2847798e-05
      3700         100   0.0010354619   0.0010354619   0.00094660447  6.659749e-05 
      3800         100   0.00086294615  0.00086294615  0.000817655    7.0448999e-05
      3900         100   0.00076508065  0.00076508065  0.00072735974  8.8667672e-05
      4000         100   0.00072644507  0.00072644507  0.00067157847  9.7103867e-05
      4100         100   0.00068547085  0.00068547085  0.00064073445  0.00017255677
      4200         100   0.0010057911   0.0010057911   0.00080326863  2.8708279e-05
      4300         100   0.00062436608  0.00062436608  0.00058526776  3.2579543e-05
      4400         100   0.00047473676  0.00047473676  0.00046926787  6.7183567e-05
      4500         100   0.00029840612  0.00029840612  0.00033400943  2.9702589e-05
      4600         100   0.00027914469  0.00027914469  0.00031963515  2.1173773e-05
      4700         100   0.00027854131  0.00027854131  0.0003174149   3.0301202e-05
      4800         100   0.00023575927  0.00023575927  0.00028572182  2.9008853e-05
      4900         100   0.00024842056  0.00024842056  0.00029570911  2.6041501e-05
      5000         100   0.00026361463  0.00026361463  0.00029994481  2.7226938e-05
Loop time of 0.140503 on 1 procs for 5000 steps with 100 atoms

Performance: 15373330.878 tau/day, 35586.414 timesteps/s, 3.559 Matom-step/s
99.0% CPU use with 1 MPI tasks x 1 OpenMP threads

MPI task timing breakdown:
Section |  min time  |  avg time  |  max time  |%varavg| %total
---------------------------------------------------------------
Pair    | 0.0097468  | 0.0097468  | 0.0097468  |   0.0 |  6.94
Neigh   | 0.0056169  | 0.0056169  | 0.0056169  |   0.0 |  4.00
Comm    | 0.00063591 | 0.00063591 | 0.00063591 |   0.0 |  0.45
Output  | 0.00025752 | 0.00025752 | 0.00025752 |   0.0 |  0.18
Modify  | 0.12244    | 0.12244    | 0.12244    |   0.0 | 87.14
Other   |            | 0.001805   |            |       |  1.28

Nlocal:            100 ave         100 max         100 min
Histogram: 1 0 0 0 0 0 0 0 0 0
Nghost:              0 ave           0 max           0 min
Histogram: 1 0 0 0 0 0 0 0 0 0
Neighs:            169 ave         169 max         169 min
Histogram: 1 0 0 0 0 0 0 0 0 0

Total # of neighbors = 169
Ave neighs/atom = 1.69
Neighbor list builds = 279
Dangerous builds = 0

fix_modify      20 move * rotate 0 0 0 0 0 1 25
Fix_modify move:
  turned on motion for 24 surfs
run             5000
Generated 0 of 1 mixed pair_coeff terms from geometric mixing rule
Per MPI rank memory allocation (min/avg/max) = 16.42 | 16.42 | 16.42 Mbytes
   Step        Atoms         Temp           c_1            c_2           Press     
      5000         100   0.00026361463  0.00026361463  0.00029994481  2.564851e-05 
      5100         100   0.12100891     0.12100891     0.069471482    0.0061062316 
      5200         100   0.1443588      0.1443588      0.086100622    0.0023132548 
      5300         100   0.15816741     0.15816741     0.089138371    0.0034829077 
      5400         100   0.16896962     0.16896962     0.092764888    0.0021920952 
      5500         100   0.18235672     0.18235672     0.098181065    0.0025628931 
      5600         100   0.19244676     0.19244676     0.10203968     0.0025556256 
      5700         100   0.20221895     0.20221895     0.10578274     0.0028290268 
      5800         100   0.2121376      0.2121376      0.1099354      0.0030436755 
      5900         100   0.22324483     0.22324483     0.11472441     0.0031704499 
      6000         100   0.23505843     0.23505843     0.12037833     0.003768801  
      6100         100   0.24344476     0.24344476     0.12444959     0.0044219852 
      6200         100   0.25564528     0.25564528     0.12973563     0.0042349494 
      6300         100   0.26096729     0.26096729     0.13239479     0.0035924203 
      6400         100   0.2680203      0.2680203      0.13583003     0.0042508567 
      6500         100   0.2755327      0.2755327      0.1394566      0.0041944237 
      6600         100   0.28103278     0.28103278     0.14191175     0.0043703401 
      6700         100   0.28583152     0.28583152     0.14419481     0.0038517756 
      6800         100   0.29329943     0.29329943     0.14798673     0.0045375223 
      6900         100   0.29447516     0.29447516     0.14877672     0.0042762227 
      7000         100   0.29944618     0.29944618     0.1513643      0.0054324185 
      7100         100   0.30317486     0.30317486     0.15299955     0.0043689836 
      7200         100   0.30936404     0.30936404     0.15601164     0.0048648933 
      7300         100   0.31247999     0.31247999     0.1571647      0.0043521354 
      7400         100   0.31113368     0.31113368     0.15628273     0.0046848764 
      7500         100   0.31238603     0.31238603     0.15694943     0.0045750369 
      7600         100   0.31255406     0.31255406     0.15709385     0.0046592977 
      7700         100   0.31711798     0.31711798     0.15914677     0.0052693607 
      7800         100   0.31793108     0.31793108     0.15944437     0.0049920203 
      7900         100   0.31890924     0.31890924     0.15996828     0.0049476738 
      8000         100   0.32299311     0.32299311     0.16194792     0.0060035968 
      8100         100   0.32197467     0.32197467     0.16130278     0.0049789229 
      8200         100   0.32410459     0.32410459     0.16232491     0.0052032494 
      8300         100   0.32508258     0.32508258     0.16279286     0.0051888214 
      8400         100   0.32654151     0.32654151     0.16349035     0.0054010663 
      8500         100   0.32649342     0.32649342     0.16347521     0.0055160014 
      8600         100   0.32768902     0.32768902     0.16413032     0.0050690823 
      8700         100   0.32899453     0.32899453     0.16486233     0.0052685785 
      8800         100   0.32846995     0.32846995     0.16457562     0.0051693041 
      8900         100   0.32991204     0.32991204     0.16537628     0.0058719015 
      9000         100   0.32959323     0.32959323     0.1651182      0.0058990025 
      9100         100   0.33080996     0.33080996     0.16575606     0.0054269321 
      9200         100   0.32885589     0.32885589     0.16462302     0.0050717102 
      9300         100   0.32906968     0.32906968     0.1647         0.0049458618 
      9400         100   0.32987026     0.32987026     0.16516892     0.0059288093 
      9500         100   0.33069071     0.33069071     0.16557904     0.005779465  
      9600         100   0.33154696     0.33154696     0.1662131      0.0060451629 
      9700         100   0.33111225     0.33111225     0.16579918     0.0051509178 
      9800         100   0.32997325     0.32997325     0.16512591     0.0049697868 
      9900         100   0.33105933     0.33105933     0.16569599     0.0052254616 
     10000         100   0.3318598      0.3318598      0.16606218     0.0053244556 
Loop time of 0.27 on 1 procs for 5000 steps with 100 atoms

Performance: 8000009.837 tau/day, 18518.541 timesteps/s, 1.852 Matom-step/s
99.6% CPU use with 1 MPI tasks x 1 OpenMP threads

MPI task timing breakdown:
Section |  min time  |  avg time  |  max time  |%varavg| %total
---------------------------------------------------------------
Pair    | 0.027294   | 0.027294   | 0.027294   |   0.0 | 10.11
Neigh   | 0.0066173  | 0.0066173  | 0.0066173  |   0.0 |  2.45
Comm    | 0.00054358 | 0.00054358 | 0.00054358 |   0.0 |  0.20
Output  | 0.00039563 | 0.00039563 | 0.00039563 |   0.0 |  0.15
Modify  | 0.2331     | 0.2331     | 0.2331     |   0.0 | 86.33
Other   |            | 0.002048   |            |       |  0.76

Nlocal:            100 ave         100 max         100 min
Histogram: 1 0 0 0 0 0 0 0 0 0
Nghost:              0 ave           0 max           0 min
Histogram: 1 0 0 0 0 0 0 0 0 0
Neighs:            184 ave         184 max         184 min
Histogram: 1 0 0 0 0 0 0 0 0 0

Total # of neighbors = 184
Ave neighs/atom = 1.84
Neighbor list builds = 333
Dangerous builds = 0

fix_modify      20 move * none
Fix_modify move:
  turned off motion for 0 surfs
run             5000
Generated 0 of 1 mixed pair_coeff terms from geometric mixing rule
Per MPI rank memory allocation (min/avg/max) = 16.41 | 16.41 | 16.41 Mbytes
   Step        Atoms         Temp           c_1            c_2           Press     
     10000         100   0.3318598      0.3318598      0.16606218     0.0053118746 
     10100         100   0.077041823    0.077041823    0.045350169    0.0050627077 
     10200         100   0.046186917    0.046186917    0.034122041    0.0018972548 
     10300         100   0.035409273    0.035409273    0.026679261    0.00050748048
     10400         100   0.028868474    0.028868474    0.022068364    0.00066975734
     10500         100   0.021787376    0.021787376    0.016863534    0.00050341958
     10600         100   0.019373416    0.019373416    0.014885994    0.00077110148
     10700         100   0.016170392    0.016170392    0.012552248    0.00054079466
     10800         100   0.012365579    0.012365579    0.0099026563   0.00070525981
     10900         100   0.010851814    0.010851814    0.0087652082   0.00079064945
     11000         100   0.010077308    0.010077308    0.0081605725   0.00023738458
     11100         100   0.009420522    0.009420522    0.0075823125   0.00037340349
     11200         100   0.0083657753   0.0083657753   0.0068121905   0.00011956508
     11300         100   0.0074867894   0.0074867894   0.0061653604   0.00040925863
     11400         100   0.00621858     0.00621858     0.0051223809   9.5225633e-05
     11500         100   0.0054269575   0.0054269575   0.0044454564   9.457753e-05 
     11600         100   0.004826826    0.004826826    0.0039988193   0.00019845431
     11700         100   0.004310018    0.004310018    0.0036060895   0.00013345706
     11800         100   0.0036592589   0.0036592589   0.0031138633   0.00018463493
     11900         100   0.0033994537   0.0033994537   0.0029180842   9.9869376e-05
     12000         100   0.0031822058   0.0031822058   0.0027305466   4.0007695e-05
     12100         100   0.0029484802   0.0029484802   0.0025527858   0.0001441643 
     12200         100   0.0025898729   0.0025898729   0.0022640477   0.00011340154
     12300         100   0.0022629681   0.0022629681   0.0019593769   6.2495393e-05
     12400         100   0.0022051659   0.0022051659   0.0019067616   2.7288928e-05
     12500         100   0.0020763207   0.0020763207   0.0018031814   3.4820459e-05
     12600         100   0.00195575     0.00195575     0.0017186219   2.7650713e-05
     12700         100   0.0018578308   0.0018578308   0.0016426587   2.2990657e-05
     12800         100   0.0018126524   0.0018126524   0.0016112139   2.5205577e-05
     12900         100   0.0015329546   0.0015329546   0.0014077146   1.8697363e-05
     13000         100   0.0013819843   0.0013819843   0.0012970187   1.7102056e-05
     13100         100   0.0013611984   0.0013611984   0.0012789387   6.7381715e-05
     13200         100   0.0013046235   0.0013046235   0.0012336905   1.5544703e-05
     13300         100   0.001217722    0.001217722    0.0011677882   1.6192555e-05
     13400         100   0.0011509457   0.0011509457   0.0011165729   1.2705723e-05
     13500         100   0.0011110791   0.0011110791   0.0010843239   1.5281865e-05
     13600         100   0.0010833496   0.0010833496   0.0010644144   1.1088827e-05
     13700         100   0.0010281713   0.0010281713   0.0010163118   7.283712e-05 
     13800         100   0.0009612129   0.0009612129   0.00095771994  8.2528823e-06
     13900         100   0.00094367283  0.00094367283  0.00094200639  1.7005716e-05
     14000         100   0.00089656891  0.00089656891  0.00090727032  1.3246665e-05
     14100         100   0.00083942293  0.00083942293  0.00086614813  1.0387859e-05
     14200         100   0.00082834669  0.00082834669  0.00085903979  5.499155e-05 
     14300         100   0.00082102484  0.00082102484  0.00085161246  1.0160182e-05
     14400         100   0.00080222919  0.00080222919  0.00082797515  9.9275862e-06
     14500         100   0.00079220502  0.00079220502  0.00081908583  9.8035371e-06
     14600         100   0.00075816066  0.00075816066  0.00076972746  9.4991852e-06
     14700         100   0.00071695535  0.00071695535  0.00073715737  0.00012577068
     14800         100   0.00069861761  0.00069861761  0.00072021335  6.1699981e-06
     14900         100   0.00067977596  0.00067977596  0.00069769568  1.2661741e-05
     15000         100   0.00065684445  0.00065684445  0.00067708146  8.0861019e-06
Loop time of 0.166888 on 1 procs for 5000 steps with 100 atoms

Performance: 12942820.864 tau/day, 29960.233 timesteps/s, 2.996 Matom-step/s
99.4% CPU use with 1 MPI tasks x 1 OpenMP threads

MPI task timing breakdown:
Section |  min time  |  avg time  |  max time  |%varavg| %total
---------------------------------------------------------------
Pair    | 0.010175   | 0.010175   | 0.010175   |   0.0 |  6.10
Neigh   | 0.0012826  | 0.0012826  | 0.0012826  |   0.0 |  0.77
Comm    | 0.0005508  | 0.0005508  | 0.0005508  |   0.0 |  0.33
Output  | 0.00031885 | 0.00031885 | 0.00031885 |   0.0 |  0.19
Modify  | 0.15309    | 0.15309    | 0.15309    |   0.0 | 91.73
Other   |            | 0.001474   |            |       |  0.88

Nlocal:            100 ave         100 max         100 min
Histogram: 1 0 0 0 0 0 0 0 0 0
Nghost:              0 ave           0 max           0 min
Histogram: 1 0 0 0 0 0 0 0 0 0
Neighs:            161 ave         161 max         161 min
Histogram: 1 0 0 0 0 0 0 0 0 0

Total # of neighbors = 161
Ave neighs/atom = 1.61
Neighbor list builds = 62
Dangerous builds = 0

fix_modify      20 move * rotate 0 0 0 1 1 1 25
Fix_modify move:
  turned on motion for 24 surfs
run             5000
Generated 0 of 1 mixed pair_coeff terms from geometric mixing rule
Per MPI rank memory allocation (min/avg/max) = 16.42 | 16.42 | 16.42 Mbytes
   Step        Atoms         Temp           c_1            c_2           Press     
     15000         100   0.00065684445  0.00065684445  0.00067708146  8.0746947e-06
     15100         100   0.15733108     0.15733108     0.092566433    0.0028617038 
     15200         100   0.19032722     0.19032722     0.11239171     0.0027977168 
     15300         100   0.19278137     0.19278137     0.11492701     0.003825406  
     15400         100   0.18507836     0.18507836     0.11072646     0.0060701928 
     15500         100   0.21927283     0.21927283     0.12191259     0.017480147  
     15600         100   0.27069949     0.27069949     0.14410288     0.0094397182 
     15700         100   0.31432922     0.31432922     0.16344455     0.016877666  
     15800         100   0.34138258     0.34138258     0.17586881     0.018870128  
     15900         100   0.32537765     0.32537765     0.16599875     0.011562313  
     16000         100   0.32009133     0.32009133     0.16428615     0.016772036  
     16100         100   0.31142455     0.31142455     0.15883888     0.012446023  
     16200         100   0.30606749     0.30606749     0.1559985      0.01399782   
     16300         100   0.27143913     0.27143913     0.13939315     0.012203018  
     16400         100   0.28554689     0.28554689     0.14666444     0.019724389  
     16500         100   0.27271046     0.27271046     0.13907005     0.010193906  
     16600         100   0.28087939     0.28087939     0.14410535     0.0065657678 
     16700         100   0.31118748     0.31118748     0.15818121     0.025164149  
     16800         100   0.28602377     0.28602377     0.1455075      0.0072095159 
     16900         100   0.29621321     0.29621321     0.15099297     0.0081818217 
     17000         100   0.28063315     0.28063315     0.14406969     0.0088939501 
     17100         100   0.28124111     0.28124111     0.14602714     0.006435783  
     17200         100   0.28677645     0.28677645     0.15131927     0.0040384785 
     17300         100   0.32175397     0.32175397     0.17140889     0.007069747  
     17400         100   0.34970655     0.34970655     0.18964776     0.0070751006 
     17500         100   0.3931359      0.3931359      0.21558215     0.005832795  
     17600         100   0.44454903     0.44454903     0.24335493     0.0090572253 
     17700         100   0.51285513     0.51285513     0.28044063     0.0063517799 
     17800         100   0.56978138     0.56978138     0.3071825      0.010747724  
     17900         100   0.5286661      0.5286661      0.28844406     0.014717035  
     18000         100   0.58405374     0.58405374     0.31777653     0.011296958  
     18100         100   0.55922256     0.55922256     0.30782229     0.008349281  
     18200         100   0.47938412     0.47938412     0.27046927     0.013484772  
     18300         100   0.4109327      0.4109327      0.23733244     0.0071850679 
     18400         100   0.3883942      0.3883942      0.22534216     0.0056035079 
     18500         100   0.33952266     0.33952266     0.20427556     0.0053274034 
     18600         100   0.31853491     0.31853491     0.19731726     0.0052663791 
     18700         100   0.30977036     0.30977036     0.19792368     0.0056673026 
     18800         100   0.32030749     0.32030749     0.20863711     0.0044855564 
     18900         100   0.30020477     0.30020477     0.19891043     0.0045395595 
     19000         100   0.31528647     0.31528647     0.20454655     0.0054280306 
     19100         100   0.28871005     0.28871005     0.18602045     0.0081624056 
     19200         100   0.30602579     0.30602579     0.18575612     0.0090875094 
     19300         100   0.30491745     0.30491745     0.18081391     0.0074371868 
     19400         100   0.31126826     0.31126826     0.18378382     0.010075871  
     19500         100   0.29614469     0.29614469     0.17240671     0.013924847  
     19600         100   0.3227358      0.3227358      0.18044111     0.013922058  
     19700         100   0.3559174      0.3559174      0.19370136     0.01261977   
     19800         100   0.36923329     0.36923329     0.19797966     0.010111231  
     19900         100   0.37960992     0.37960992     0.20383172     0.013435638  
     20000         100   0.35783541     0.35783541     0.1937986      0.0071578446 
Loop time of 0.180786 on 1 procs for 5000 steps with 100 atoms

Performance: 11947850.156 tau/day, 27657.061 timesteps/s, 2.766 Matom-step/s
99.0% CPU use with 1 MPI tasks x 1 OpenMP threads

MPI task timing breakdown:
Section |  min time  |  avg time  |  max time  |%varavg| %total
---------------------------------------------------------------
Pair    | 0.025708   | 0.025708   | 0.025708   |   0.0 | 14.22
Neigh   | 0.0097599  | 0.0097599  | 0.0097599  |   0.0 |  5.40
Comm    | 0.00059037 | 0.00059037 | 0.00059037 |   0.0 |  0.33
Output  | 0.00037068 | 0.00037068 | 0.00037068 |   0.0 |  0.21
Modify  | 0.14216    | 0.14216    | 0.14216    |   0.0 | 78.64
Other   |            | 0.002194   |            |       |  1.21

Nlocal:            100 ave         100 max         100 min
Histogram: 1 0 0 0 0 0 0 0 0 0
Nghost:              0 ave           0 max           0 min
Histogram: 1 0 0 0 0 0 0 0 0 0
Neighs:            208 ave         208 max         208 min
Histogram: 1 0 0 0 0 0 0 0 0 0

Total # of neighbors = 208
Ave neighs/atom = 2.08
Neighbor list builds = 422
Dangerous builds = 0

fix_modify      20 move * none
Fix_modify move:
  turned off motion for 0 surfs
run             5000
Generated 0 of 1 mixed pair_coeff terms from geometric mixing rule
Per MPI rank memory allocation (min/avg/max) = 16.41 | 16.41 | 16.41 Mbytes
   Step        Atoms         Temp           c_1            c_2           Press     
     20000         100   0.35783541     0.35783541     0.1937986      0.0070175506 
     20100         100   0.11260454     0.11260454     0.069579344    0.0019331568 
     20200         100   0.093372064    0.093372064    0.058185623    0.0023388144 
     20300         100   0.11726333     0.11726333     0.068578196    0.004497057  
     20400         100   0.12635329     0.12635329     0.072693134    0.0048029852 
     20500         100   0.11156372     0.11156372     0.065898163    0.0034596727 
     20600         100   0.11266921     0.11266921     0.066164066    0.0053352784 
     20700         100   0.10168774     0.10168774     0.060130473    0.0037052805 
     20800         100   0.10071142     0.10071142     0.059601635    0.0034292729 
     20900         100   0.089656517    0.089656517    0.054445104    0.0051735262 
     21000         100   0.066361392    0.066361392    0.041939089    0.0025740255 
     21100         100   0.055945915    0.055945915    0.037548973    0.002834781  
     21200         100   0.048311509    0.048311509    0.033361309    0.00386296   
     21300         100   0.040441943    0.040441943    0.029028508    0.0016654702 
     21400         100   0.043059678    0.043059678    0.030360393    0.0025007172 
     21500         100   0.046704652    0.046704652    0.032360144    0.0017610427 
     21600         100   0.03594507     0.03594507     0.026170483    0.0021969504 
     21700         100   0.035338821    0.035338821    0.025733027    0.0014532231 
     21800         100   0.032799657    0.032799657    0.023926692    0.0011816897 
     21900         100   0.029333146    0.029333146    0.021749571    0.0014624558 
     22000         100   0.026705998    0.026705998    0.019553629    0.00081527541
     22100         100   0.025304394    0.025304394    0.018516166    0.0015078806 
     22200         100   0.021286028    0.021286028    0.015789022    0.00091180475
     22300         100   0.019086385    0.019086385    0.013960458    0.00061218885
     22400         100   0.018440956    0.018440956    0.013508288    0.00065778196
     22500         100   0.017601892    0.017601892    0.012885553    0.00053135043
     22600         100   0.01688488     0.01688488     0.012387435    0.00059392161
     22700         100   0.015019733    0.015019733    0.011127595    0.00082484737
     22800         100   0.015340833    0.015340833    0.011138108    0.00089569375
     22900         100   0.01447379     0.01447379     0.010583133    0.0007462249 
     23000         100   0.013551734    0.013551734    0.0098254434   0.0010963981 
     23100         100   0.010398776    0.010398776    0.0078419636   0.00058499717
     23200         100   0.0099741741   0.0099741741   0.0074974907   0.00041569978
     23300         100   0.010269875    0.010269875    0.0074681627   0.00076682349
     23400         100   0.0078995478   0.0078995478   0.0059291772   0.00032403828
     23500         100   0.0073040306   0.0073040306   0.0054092297   0.00030461216
     23600         100   0.0062132473   0.0062132473   0.0046632559   0.00055255675
     23700         100   0.0068629659   0.0068629659   0.0048195493   0.00042949786
     23800         100   0.0047878      0.0047878      0.0036343766   0.00021192363
     23900         100   0.0049028763   0.0049028763   0.0036833434   0.00016440199
     24000         100   0.0043804727   0.0043804727   0.003329588    0.00024011081
     24100         100   0.004432641    0.004432641    0.0033017545   0.00019905254
     24200         100   0.0040546568   0.0040546568   0.0029997484   0.00011101271
     24300         100   0.0033135543   0.0033135543   0.0025464239   0.00023239305
     24400         100   0.0038051145   0.0038051145   0.0027927759   7.6123643e-05
     24500         100   0.0030911109   0.0030911109   0.0023216131   6.861114e-05 
     24600         100   0.0030533511   0.0030533511   0.0022854205   5.8444673e-05
     24700         100   0.0030068842   0.0030068842   0.0022302901   5.5254775e-05
     24800         100   0.0034536642   0.0034536642   0.002393106    5.1710006e-05
     24900         100   0.0023257814   0.0023257814   0.0017852208   0.00014150684
     25000         100   0.002281935    0.002281935    0.0017559796   4.2476386e-05
Loop time of 0.163169 on 1 procs for 5000 steps with 100 atoms

Performance: 13237840.942 tau/day, 30643.150 timesteps/s, 3.064 Matom-step/s
99.4% CPU use with 1 MPI tasks x 1 OpenMP threads

MPI task timing breakdown:
Section |  min time  |  avg time  |  max time  |%varavg| %total
---------------------------------------------------------------
Pair    | 0.019411   | 0.019411   | 0.019411   |   0.0 | 11.90
Neigh   | 0.0040548  | 0.0040548  | 0.0040548  |   0.0 |  2.49
Comm    | 0.00042834 | 0.00042834 | 0.00042834 |   0.0 |  0.26
Output  | 0.00038626 | 0.00038626 | 0.00038626 |   0.0 |  0.24
Modify  | 0.13714    | 0.13714    | 0.13714    |   0.0 | 84.05
Other   |            | 0.001745   |            |       |  1.07

Nlocal:            100 ave         100 max         100 min
Histogram: 1 0 0 0 0 0 0 0 0 0
Nghost:              0 ave           0 max           0 min
Histogram: 1 0 0 0 0 0 0 0 0 0
Neighs:            156 ave         156 max         156 min
Histogram: 1 0 0 0 0 0 0 0 0 0

Total # of neighbors = 156
Ave neighs/atom = 1.56
Neighbor list builds = 186
Dangerous builds = 0
Total wall time: 0:00:00
