LAMMPS (4 Jul 2026 - Development - patch_4Jul2026-197-g34022a802c)
OMP_NUM_THREADS environment is not set. Defaulting to 1 thread.
  using 1 OpenMP thread(s) per MPI task
# pouring spheres into box made of triangles

units           lj
atom_style      sphere
boundary        f f f
dimension       3
comm_modify     vel yes

region          box block -10 10 -10 10 -10 10 units box
create_box      2 box   # simply for dump_modify to color lines = green
Created orthogonal box = (-10 -10 -10) to (10 10 10)
  1 by 2 by 2 MPI processor grid

pair_style      granular
pair_coeff      * * hooke 4000.0 100.0                     tangential linear_history 1000.0 1.0 0.5                     damping mass_velocity

neighbor        0.3 bin
neigh_modify    delay 0 every 1 check yes

fix             20 all surface/global input stl 2 1 surf.tri.stl                 model * * granular hooke 4000.0 100.0                     tangential linear_history 1000.0 1.0 0.5                     damping mass_velocity
Reading STL object STL version of surf.tri with 4 triangles from file surf.tri.stl
Fix surface/global triangle creation:
  4 tris
  8 tri edges
  5 tri corner points
  4 edge connections
  2 corner point connections
  4 free edges
  0 free corner points
  8.48528137423857 min edge length
  12 max edge length
  36 min tri area
  36 max tri area

fix             2 all nve/sphere
fix             3 all gravity 1.0 vector 0 0 -1

region          slab block -2 2 -2 2 -2 2 units box
fix             ins all pour 100 1 4767548 vol 0.4 10                 diam one 1.0 region slab ignore

timestep        0.005

compute         1 all temp
compute_modify  1 dynamic/dof yes

compute         2 all temp/sphere
compute_modify  2 dynamic/dof yes

thermo          100
thermo_style    custom step atoms temp c_1 c_2 press
thermo_modify   lost ignore
compute_modify  thermo_temp dynamic/dof yes

#dump            viz all image 100 tribox.global-*.png type diameter #                   size 800 800 zoom 1.5 shiny 0.2 fsaa yes #                   ssao yes 1231541 0.4 view 80 20 box yes 0.025 #                   region slab forestgreen frame 0.2 fix 20 const 1 0
#dump_modify     viz pad 6 backcolor black backcolor2 white boxcolor midnightblue #                    acolor 1 slategray fcolor 20 yellow lights 0.15 0.9 0.45 0.9

run             5000
Generated 0 of 1 mixed pair_coeff terms from geometric mixing rule
Particle insertion: 48 every 566 steps, 100 by step 1133
Neighbor list info ...
  update: every = 1 steps, delay = 0 steps, check = yes
  max neighbors/atom: 2000, page size: 100000
  master list distance cutoff = 1.3
  ghost atom cutoff = 1.3
  binsize = 0.65, bins = 31 31 31
  1 neighbor lists, perpetual/occasional/extra = 1 0 0
  (1) pair granular, perpetual
      attributes: half, newton on, size, history
      pair build: half/size/bin/atomonly/newton
      stencil: half/bin/3d
      bin: standard
Per MPI rank memory allocation (min/avg/max) = 11.55 | 11.55 | 11.55 Mbytes
   Step        Atoms         Temp           c_1            c_2           Press     
         0           0   0              0              0              0            
WARNING: Fewer insertions than requested (src/GRANULAR/fix_pour.cpp:691)
       100          30   1.8475594      1.8475594      0.94247903     0.0066974027 
       200          29   1.1509218      1.1509218      0.56834679     0.0040282263 
       300          29   1.4027892      1.4027892      0.69231081     0.0049097623 
       400          28   1.3691535      1.3691535      0.67323627     0.0046219869 
       500          24   1.07938        1.07938        0.52978729     0.0031045374 
WARNING: Fewer insertions than requested (src/GRANULAR/fix_pour.cpp:691)
       600          36   0.88995271     0.88995271     0.4601509      0.0038644629 
       700          35   0.79950836     0.79950836     0.41503611     0.0040459316 
       800          33   0.39502887     0.39502887     0.20346738     0.0016529207 
       900          33   0.48665494     0.48665494     0.24705098     0.0020387378 
      1000          30   0.16791326     0.16791326     0.090580275    0.0006917023 
      1100          29   0.039136829    0.039136829    0.026665126    0.00021024035
WARNING: Fewer insertions than requested (src/GRANULAR/fix_pour.cpp:691)
      1200          45   0.25428743     0.25428743     0.13053041     0.001473183  
      1300          45   0.31051587     0.31051587     0.15898196     0.0020156289 
      1400          45   0.39308686     0.39308686     0.19926968     0.0021960807 
      1500          45   0.48836097     0.48836097     0.24608137     0.0026988677 
      1600          41   0.21843424     0.21843424     0.11311316     0.0011207537 
WARNING: Fewer insertions than requested (src/GRANULAR/fix_pour.cpp:691)
      1700          40   0.029667847    0.029667847    0.019750794    0.00017739988
      1800          40   0.042291342    0.042291342    0.026088587    0.00030119176
      1900          40   0.054154251    0.054154251    0.032244279    0.00030999399
      2000          40   0.072543311    0.072543311    0.041205737    0.00037287083
      2100          40   0.1017631      0.1017631      0.055615493    0.00049609511
      2200          40   0.12976692     0.12976692     0.069523265    0.00063261373
WARNING: Fewer insertions than requested (src/GRANULAR/fix_pour.cpp:691)
      2300          61   0.19169095     0.19169095     0.098098376    0.0016601222 
      2400          61   0.25837979     0.25837979     0.13156137     0.0019269163 
      2500          60   0.27251528     0.27251528     0.13870854     0.0021027258 
      2600          60   0.35561538     0.35561538     0.18013584     0.002828131  
      2700          60   0.4535611      0.4535611      0.2288898      0.0035310568 
      2800          56   0.25381294     0.25381294     0.12980758     0.0021373947 
WARNING: Fewer insertions than requested (src/GRANULAR/fix_pour.cpp:691)
      2900          56   0.25272242     0.25272242     0.1289217      0.0017959693 
      3000          54   0.17023737     0.17023737     0.088000726    0.0011844003 
      3100          52   0.055230936    0.055230936    0.031155075    0.00044156204
      3200          52   0.07573976     0.07573976     0.041290899    0.00057162043
      3300          52   0.10367911     0.10367911     0.054894585    0.00070087401
WARNING: Fewer insertions than requested (src/GRANULAR/fix_pour.cpp:691)
      3400          58   0.19148746     0.19148746     0.098202271    0.0013922607 
      3500          57   0.18109906     0.18109906     0.093133617    0.0012947762 
      3600          57   0.24800006     0.24800006     0.12640625     0.0017992694 
      3700          57   0.33109242     0.33109242     0.16785703     0.0023509068 
      3800          56   0.36166674     0.36166674     0.18282888     0.0025147319 
      3900          53   0.23523086     0.23523086     0.12016788     0.0015526573 
WARNING: Fewer insertions than requested (src/GRANULAR/fix_pour.cpp:691)
      4000          55   0.23669153     0.23669153     0.12060078     0.0016269684 
      4100          55   0.30309957     0.30309957     0.15358184     0.0020480367 
      4200          55   0.38513777     0.38513777     0.19429881     0.0025996799 
      4300          53   0.27433644     0.27433644     0.13920547     0.0017831869 
      4400          52   0.27037079     0.27037079     0.13691602     0.0017236138 
      4500          49   0.09567459     0.09567459     0.050409161    0.00057404754
      4600          52   0.17445759     0.17445759     0.089604338    0.0011121672 
      4700          51   0.15573813     0.15573813     0.080778223    0.0009733633 
      4800          51   0.22404744     0.22404744     0.11481534     0.0014234535 
      4900          50   0.24799069     0.24799069     0.12656251     0.0015402708 
      5000          50   0.35167472     0.35167472     0.17803169     0.0021732638 
Loop time of 0.062294 on 4 procs for 5000 steps with 50 atoms

Performance: 34674309.270 tau/day, 80264.605 timesteps/s, 4.013 Matom-step/s
97.6% CPU use with 4 MPI tasks x 1 OpenMP threads

MPI task timing breakdown:
Section |  min time  |  avg time  |  max time  |%varavg| %total
---------------------------------------------------------------
Pair    | 0.00026422 | 0.0010449  | 0.0021442  |   2.5 |  1.68
Neigh   | 0.0032007  | 0.0035157  | 0.0037712  |   0.4 |  5.64
Comm    | 0.017386   | 0.018341   | 0.019391   |   0.5 | 29.44
Output  | 0.00030962 | 0.00049896 | 0.00075116 |   0.0 |  0.80
Modify  | 0.0054532  | 0.019462   | 0.034404   |   9.9 | 31.24
Other   |            | 0.01943    |            |       | 31.19

Nlocal:           12.5 ave          19 max           5 min
Histogram: 1 0 1 0 0 0 0 0 0 2
Nghost:          17.75 ave          26 max           8 min
Histogram: 1 0 1 0 0 0 0 0 0 2
Neighs:           3.75 ave          10 max           0 min
Histogram: 2 0 0 0 0 1 0 0 0 1

Total # of neighbors = 15
Ave neighs/atom = 0.3
Neighbor list builds = 708
Dangerous builds = 0

fix_modify      20 move * rotate 0 0 0 0 0 1 25
Fix_modify move:
  turned on motion for 4 surfs
run             5000
Generated 0 of 1 mixed pair_coeff terms from geometric mixing rule
Per MPI rank memory allocation (min/avg/max) = 16.3 | 16.3 | 16.3 Mbytes
   Step        Atoms         Temp           c_1            c_2           Press     
      5000          50   0.35167472     0.35167472     0.17803169     0.0021715071 
      5100          48   0.30175439     0.30175439     0.16088369     0.001779954  
      5200          48   0.43118634     0.43118634     0.23316564     0.0025332197 
      5300          48   0.5747899      0.5747899      0.3060904      0.0033768907 
      5400          46   0.59702898     0.59702898     0.31868171     0.003358288  
      5500          43   0.53852935     0.53852935     0.29141054     0.0028272791 
      5600          38   0.26200221     0.26200221     0.15769661     0.0012117602 
      5700          37   0.255477       0.255477       0.15612587     0.0011496465 
      5800          37   0.3489397      0.3489397      0.20333584     0.0015702287 
      5900          36   0.36026218     0.36026218     0.21020429     0.001576147  
      6000          36   0.47983806     0.47983806     0.26992808     0.0020992915 
      6100          35   0.50869115     0.50869115     0.28535406     0.0021619374 
      6200          32   0.32783629     0.32783629     0.19320568     0.0012703656 
      6300          31   0.30167043     0.30167043     0.17964891     0.0011312641 
      6400          29   0.22258164     0.22258164     0.13814364     0.00077903574
      6500          29   0.31255007     0.31255007     0.18296857     0.0010939097 
      6600          29   0.42177832     0.42177832     0.2376837      0.0014762241 
      6700          27   0.27653744     0.27653744     0.16543745     0.00089872615
      6800          27   0.36961996     0.36961996     0.21179657     0.0012012507 
      6900          26   0.34881673     0.34881673     0.20071708     0.0010900179 
      7000          25   0.29590964     0.29590964     0.17399773     0.00088769878
      7100          24   0.21378905     0.21378905     0.13276554     0.00061464352
      7200          23   0.078219232    0.078219232    0.065745637    0.00021506283
      7300          23   0.10529913     0.10529913     0.080141324    0.00028956811
      7400          23   0.14311685     0.14311685     0.099136227    0.00039355745
      7500          23   0.19282629     0.19282629     0.12393254     0.00053026769
      7600          22   0.06843046     0.06843046     0.060278359    0.00017960496
      7700          22   0.1031825      0.1031825      0.077758963    0.0002708398 
      7800          22   0.14625077     0.14625077     0.099291552    0.00038387366
      7900          22   0.19762711     0.19762711     0.12487927     0.00051881781
      8000          22   0.25740284     0.25740284     0.15450974     0.00067568246
      8100          22   0.32540157     0.32540157     0.18820738     0.00085413925
      8200          20   0.0093780271   0.0093780271   0.030056955    2.2268358e-05
      8300          20   0.0093799065   0.0093799065   0.030578244    2.2554041e-05
      8400          20   0.0099322556   0.0099322556   0.031626933    2.3584533e-05
      8500          20   0.013270045    0.013270045    0.034300086    3.1540731e-05
      8600          20   0.021304049    0.021304049    0.03866043     5.0636052e-05
      8700          20   0.033931267    0.033931267    0.045248938    8.0621144e-05
      8800          20   0.051258413    0.051258413    0.05413164     0.00012185787
      8900          20   0.074771525    0.074771525    0.066762756    0.00017763855
      9000          20   0.10709101     0.10709101     0.082951482    0.00025445402
      9100          20   0.14860266     0.14860266     0.1035185      0.00035300851
      9200          20   0.19930036     0.19930036     0.12855051     0.00047336751
      9300          19   0.065148219    0.065148219    0.060781262    0.00014662147
      9400          19   0.090793142    0.090793142    0.073585515    0.00020434877
      9500          19   0.12150788     0.12150788     0.088918614    0.00027346698
      9600          19   0.15970688     0.15970688     0.10830111     0.0003594403 
      9700          19   0.20755348     0.20755348     0.13181076     0.00046706353
      9800          18   0.033286533    0.033286533    0.044481662    7.0798016e-05
      9900          18   0.051641486    0.051641486    0.053598232    0.00010979077
     10000          18   0.075130053    0.075130053    0.065194838    0.00015969975
Loop time of 0.0437575 on 4 procs for 5000 steps with 18 atoms

Performance: 49362981.860 tau/day, 114266.162 timesteps/s, 2.057 Matom-step/s
99.3% CPU use with 4 MPI tasks x 1 OpenMP threads

MPI task timing breakdown:
Section |  min time  |  avg time  |  max time  |%varavg| %total
---------------------------------------------------------------
Pair    | 0.00020139 | 0.00053516 | 0.0011648  |   0.0 |  1.22
Neigh   | 0.0021894  | 0.0023079  | 0.0024086  |   0.2 |  5.27
Comm    | 0.010724   | 0.012478   | 0.015264   |   1.7 | 28.52
Output  | 0.00025073 | 0.00039319 | 0.00056575 |   0.0 |  0.90
Modify  | 0.0043024  | 0.012986   | 0.023455   |   7.7 | 29.68
Other   |            | 0.01506    |            |       | 34.41

Nlocal:            4.5 ave          10 max           0 min
Histogram: 1 1 0 0 0 0 0 1 0 1
Nghost:           6.75 ave          13 max           2 min
Histogram: 2 0 0 0 0 0 1 0 0 1
Neighs:              2 ave           6 max           0 min
Histogram: 2 0 0 1 0 0 0 0 0 1

Total # of neighbors = 8
Ave neighs/atom = 0.44444444
Neighbor list builds = 559
Dangerous builds = 0

fix_modify      20 move * none
Fix_modify move:
  turned off motion for 0 surfs
run             5000
Generated 0 of 1 mixed pair_coeff terms from geometric mixing rule
Per MPI rank memory allocation (min/avg/max) = 16.3 | 16.3 | 16.3 Mbytes
   Step        Atoms         Temp           c_1            c_2           Press     
     10000          18   0.075130053    0.075130053    0.065194838    0.00015965705
     10100          18   0.097031425    0.097031425    0.055105817    0.00020619178
     10200          18   0.13243935     0.13243935     0.068829739    0.00028143363
     10300          18   0.17132836     0.17132836     0.087716265    0.00036407276
     10400          18   0.21534573     0.21534573     0.10909613     0.00045760968
     10500          17   0.0022863169   0.0022863169   0.0016602469   1.0283104e-05
     10600          17   0.0022853717   0.0022853717   0.0016593227   4.5707434e-06
     10700          17   0.0022919937   0.0022919937   0.0016659755   4.5839874e-06
     10800          17   0.0023391768   0.0023391768   0.0017017635   4.6783537e-06
     10900          17   0.0025006028   0.0025006028   0.0018183737   5.0012056e-06
     11000          17   0.0030583504   0.0030583504   0.00221246     6.1167007e-06
     11100          17   0.0048678951   0.0048678951   0.0034148084   9.7357901e-06
     11200          17   0.011495637    0.011495637    0.0066674224   2.2991274e-05
     11300          17   0.023671912    0.023671912    0.012571071    4.7343823e-05
     11400          17   0.04130234     0.04130234     0.021119157    8.260468e-05 
     11500          17   0.064386922    0.064386922    0.032311682    0.00012877384
     11600          17   0.092925658    0.092925658    0.046148645    0.00018585132
     11700          17   0.12691855     0.12691855     0.062630046    0.0002538371 
     11800          17   0.16636559     0.16636559     0.081755885    0.00033273118
     11900          17   0.21126679     0.21126679     0.10352616     0.00042253358
     12000          16   0.0021042665   0.0021042665   0.0015321085   3.9454997e-06
     12100          16   0.0021078793   0.0021078793   0.0015347636   3.9522737e-06
     12200          16   0.0022635396   0.0022635396   0.0016416616   4.2441367e-06
     12300          16   0.0028769476   0.0028769476   0.0020598161   5.3942767e-06
     12400          16   0.0048854515   0.0048854515   0.0033599138   9.1602215e-06
     12500          16   0.012061775    0.012061775    0.0068694555   2.2615828e-05
     12600          16   0.025146422    0.025146422    0.013200737    4.7149542e-05
     12700          16   0.044048834    0.044048834    0.022347065    8.2591563e-05
     12800          16   0.06876901     0.06876901     0.03430844     0.00012894189
     12900          16   0.099306949    0.099306949    0.049084863    0.00018620053
     13000          16   0.13566265     0.13566265     0.066676332    0.00025436748
     13100          16   0.17783612     0.17783612     0.087082849    0.00033344273
     13200          16   0.22582735     0.22582735     0.11030441     0.00042342629
     13300          15   0.0019291247   0.0019291247   0.0014159398   3.3759683e-06
     13400          15   0.0019291247   0.0019291247   0.0014159398   3.3759683e-06
     13500          15   0.0019291247   0.0019291247   0.0014159398   3.3759683e-06
     13600          15   0.0019291247   0.0019291247   0.0014159398   3.3759683e-06
     13700          15   0.0019291247   0.0019291247   0.0014159398   3.3759683e-06
     13800          15   0.0019291247   0.0019291247   0.0014159398   3.3759683e-06
     13900          15   0.0019291247   0.0019291247   0.0014159398   3.3759683e-06
     14000          15   0.0019291247   0.0019291247   0.0014159398   3.3759683e-06
     14100          15   0.0019291247   0.0019291247   0.0014159398   3.3759683e-06
     14200          15   0.0019291247   0.0019291247   0.0014159398   3.3759683e-06
     14300          15   0.0019291247   0.0019291247   0.0014159398   3.3759683e-06
     14400          15   0.0019291247   0.0019291247   0.0014159398   3.3759683e-06
     14500          15   0.0019291247   0.0019291247   0.0014159398   3.3759683e-06
     14600          15   0.0019291247   0.0019291247   0.0014159398   3.3759683e-06
     14700          15   0.0019291247   0.0019291247   0.0014159398   3.3759683e-06
     14800          15   0.0019291247   0.0019291247   0.0014159398   3.3759683e-06
     14900          15   0.0019291247   0.0019291247   0.0014159398   3.3759683e-06
     15000          15   0.0019291247   0.0019291247   0.0014159398   3.3759683e-06
Loop time of 0.028026 on 4 procs for 5000 steps with 15 atoms

Performance: 77071359.694 tau/day, 178405.925 timesteps/s, 2.676 Matom-step/s
99.1% CPU use with 4 MPI tasks x 1 OpenMP threads

MPI task timing breakdown:
Section |  min time  |  avg time  |  max time  |%varavg| %total
---------------------------------------------------------------
Pair    | 0.00016621 | 0.00030143 | 0.00046456 |   0.0 |  1.08
Neigh   | 0.000766   | 0.00081892 | 0.00084954 |   0.0 |  2.92
Comm    | 0.0053432  | 0.0066703  | 0.007717   |   1.2 | 23.80
Output  | 0.00026321 | 0.00038977 | 0.00052184 |   0.0 |  1.39
Modify  | 0.0010749  | 0.0072892  | 0.015753   |   7.5 | 26.01
Other   |            | 0.01256    |            |       | 44.80

Nlocal:           3.75 ave           9 max           0 min
Histogram: 2 0 0 0 0 0 1 0 0 1
Nghost:           3.75 ave           9 max           0 min
Histogram: 2 0 0 0 0 0 1 0 0 1
Neighs:              1 ave           2 max           0 min
Histogram: 2 0 0 0 0 0 0 0 0 2

Total # of neighbors = 4
Ave neighs/atom = 0.26666667
Neighbor list builds = 199
Dangerous builds = 0

fix_modify      20 move * rotate 0 0 0 1 1 1 25
Fix_modify move:
  turned on motion for 4 surfs
run             5000
Generated 0 of 1 mixed pair_coeff terms from geometric mixing rule
Per MPI rank memory allocation (min/avg/max) = 16.3 | 16.3 | 16.3 Mbytes
   Step        Atoms         Temp           c_1            c_2           Press     
     15000          15   0.0019291247   0.0019291247   0.0014159398   3.3759683e-06
     15100          15   0.042011046    0.042011046    0.027922681    7.351933e-05 
     15200          15   0.074973219    0.074973219    0.045440914    0.00013120313
     15300          15   0.12230056     0.12230056     0.069969564    0.00021402599
     15400          15   0.20713636     0.20713636     0.11347227     0.00036248863
     15500          15   0.32650499     0.32650499     0.17555107     0.00057138373
     15600          15   0.48540948     0.48540948     0.25952258     0.0008494666 
     15700          15   0.69099437     0.69099437     0.3691578      0.0012092402 
     15800          15   0.96008245     0.96008245     0.50855216     0.0016801443 
     15900          15   1.3177705      1.3177705      0.6861732      0.0023060984 
     16000          12   1.1072774      1.1072774      0.59475265     0.0015225064 
     16100          11   1.3108863      1.3108863      0.69487928     0.0016386078 
     16200          11   1.8170859      1.8170859      0.93620581     0.0022713574 
     16300          10   2.324822       2.324822       1.1724619      0.0026154247 
     16400           8   2.9179129      2.9179129      1.432268       0.0025531737 
     16500           3   3.3999602      3.3999602      1.416476       0.00084999005
     16600           2   4.8165957      4.8165957      1.6744029      0.00060207446
     16700           2   6.1125008      6.1125008      2.1063713      0.0007640626 
     16800           1   0              0              3.1120335      0            
     16900           1   0              0              3.8326377      0            
     17000           1   0              0              4.6405083      0            
     17100           1   0              0              5.5356454      0            
     17200           0   0              0              0              0            
     17300           0   0              0              0              0            
     17400           0   0              0              0              0            
     17500           0   0              0              0              0            
     17600           0   0              0              0              0            
     17700           0   0              0              0              0            
     17800           0   0              0              0              0            
     17900           0   0              0              0              0            
     18000           0   0              0              0              0            
     18100           0   0              0              0              0            
     18200           0   0              0              0              0            
     18300           0   0              0              0              0            
     18400           0   0              0              0              0            
     18500           0   0              0              0              0            
     18600           0   0              0              0              0            
     18700           0   0              0              0              0            
     18800           0   0              0              0              0            
     18900           0   0              0              0              0            
     19000           0   0              0              0              0            
     19100           0   0              0              0              0            
     19200           0   0              0              0              0            
     19300           0   0              0              0              0            
     19400           0   0              0              0              0            
     19500           0   0              0              0              0            
     19600           0   0              0              0              0            
     19700           0   0              0              0              0            
     19800           0   0              0              0              0            
     19900           0   0              0              0              0            
     20000           0   0              0              0              0            
Loop time of 0.0120835 on 4 procs for 5000 steps with 0 atoms

Performance: 178756047.835 tau/day, 413787.148 timesteps/s, 0.000 atom-step/s
99.6% CPU use with 4 MPI tasks x 1 OpenMP threads

MPI task timing breakdown:
Section |  min time  |  avg time  |  max time  |%varavg| %total
---------------------------------------------------------------
Pair    | 0.00016305 | 0.00016823 | 0.00017435 |   0.0 |  1.39
Neigh   | 0.001616   | 0.0016413  | 0.0016696  |   0.1 | 13.58
Comm    | 0.0028404  | 0.0031876  | 0.0034505  |   0.4 | 26.38
Output  | 0.00021924 | 0.00024197 | 0.00029292 |   0.0 |  2.00
Modify  | 0.0029228  | 0.0033986  | 0.0039011  |   0.7 | 28.13
Other   |            | 0.003446   |            |       | 28.52

Nlocal:              0 ave           0 max           0 min
Histogram: 4 0 0 0 0 0 0 0 0 0
Nghost:              0 ave           0 max           0 min
Histogram: 4 0 0 0 0 0 0 0 0 0
Neighs:              0 ave           0 max           0 min
Histogram: 4 0 0 0 0 0 0 0 0 0

Total # of neighbors = 0
Neighbor list builds = 439
Dangerous builds = 0

fix_modify      20 move * none
Fix_modify move:
  turned off motion for 0 surfs
run             5000
Generated 0 of 1 mixed pair_coeff terms from geometric mixing rule
Per MPI rank memory allocation (min/avg/max) = 16.3 | 16.3 | 16.3 Mbytes
   Step        Atoms         Temp           c_1            c_2           Press     
     20000           0   0              0              0              0            
     20100           0   0              0              0              0            
     20200           0   0              0              0              0            
     20300           0   0              0              0              0            
     20400           0   0              0              0              0            
     20500           0   0              0              0              0            
     20600           0   0              0              0              0            
     20700           0   0              0              0              0            
     20800           0   0              0              0              0            
     20900           0   0              0              0              0            
     21000           0   0              0              0              0            
     21100           0   0              0              0              0            
     21200           0   0              0              0              0            
     21300           0   0              0              0              0            
     21400           0   0              0              0              0            
     21500           0   0              0              0              0            
     21600           0   0              0              0              0            
     21700           0   0              0              0              0            
     21800           0   0              0              0              0            
     21900           0   0              0              0              0            
     22000           0   0              0              0              0            
     22100           0   0              0              0              0            
     22200           0   0              0              0              0            
     22300           0   0              0              0              0            
     22400           0   0              0              0              0            
     22500           0   0              0              0              0            
     22600           0   0              0              0              0            
     22700           0   0              0              0              0            
     22800           0   0              0              0              0            
     22900           0   0              0              0              0            
     23000           0   0              0              0              0            
     23100           0   0              0              0              0            
     23200           0   0              0              0              0            
     23300           0   0              0              0              0            
     23400           0   0              0              0              0            
     23500           0   0              0              0              0            
     23600           0   0              0              0              0            
     23700           0   0              0              0              0            
     23800           0   0              0              0              0            
     23900           0   0              0              0              0            
     24000           0   0              0              0              0            
     24100           0   0              0              0              0            
     24200           0   0              0              0              0            
     24300           0   0              0              0              0            
     24400           0   0              0              0              0            
     24500           0   0              0              0              0            
     24600           0   0              0              0              0            
     24700           0   0              0              0              0            
     24800           0   0              0              0              0            
     24900           0   0              0              0              0            
     25000           0   0              0              0              0            
Loop time of 0.00317089 on 4 procs for 5000 steps with 0 atoms

Performance: 681196976.621 tau/day, 1576844.853 timesteps/s, 0.000 atom-step/s
99.7% CPU use with 4 MPI tasks x 1 OpenMP threads

MPI task timing breakdown:
Section |  min time  |  avg time  |  max time  |%varavg| %total
---------------------------------------------------------------
Pair    | 0.00013856 | 0.0001412  | 0.00014435 |   0.0 |  4.45
Neigh   | 0          | 0          | 0          |   0.0 |  0.00
Comm    | 0.00048937 | 0.0005096  | 0.00051999 |   0.0 | 16.07
Output  | 0.00021066 | 0.00023034 | 0.00028808 |   0.0 |  7.26
Modify  | 0.00030187 | 0.00031607 | 0.00032405 |   0.0 |  9.97
Other   |            | 0.001974   |            |       | 62.24

Nlocal:              0 ave           0 max           0 min
Histogram: 4 0 0 0 0 0 0 0 0 0
Nghost:              0 ave           0 max           0 min
Histogram: 4 0 0 0 0 0 0 0 0 0
Neighs:              0 ave           0 max           0 min
Histogram: 4 0 0 0 0 0 0 0 0 0

Total # of neighbors = 0
Neighbor list builds = 0
Dangerous builds = 0
Total wall time: 0:00:00
