variable	sname index h_atom
log		${sname}.spe.log

units 		electron
newton		on
#boundary	p p p
boundary        f f f

atom_style	hybrid charge electron

read_data  	data.${sname}

pair_style      eff/cut 500.0
pair_coeff 	* *

communicate	single vel yes

thermo		1
thermo_style	multi

run 		0
