# 3d Lennard-Jones melt

units		real
atom_style	atomic

lattice		fcc 5.0
region		box block 0 20 0 20 0 20
create_box	1 box
create_atoms	1 box
mass		1 20.0

velocity	all create 3000.0 87287 loop geom

pair_style	nm/cut 12.0
pair_coeff	1 1 0.01 5.4 8.0 7.0

neighbor	2.3 bin
neigh_modify    delay 5 every 1

fix		1 all nve

thermo 10

run		100
