LAMMPS (4 Jul 2026 - Development - patch_4Jul2026-1067-g777d22319c-modified)
  using 1 OpenMP thread(s) per MPI task
# sample surface deposition script for atoms

units		lj
atom_style      atomic
boundary        p p f

lattice		fcc 1.0 origin 0.25 0.25 0.25
Lattice spacing in x,y,z = 1.5874011 1.5874011 1.5874011
region          box block 0 5 0 5 0 10
create_box      2 box
Created orthogonal box = (0 0 0) to (7.9370053 7.9370053 15.874011)
  1 by 1 by 1 MPI processor grid

region		substrate block INF INF INF INF INF 3
create_atoms	1 region substrate
Created 300 atoms
  using lattice units in orthogonal box = (0 0 0) to (7.9370053 7.9370053 15.874011)
  create_atoms CPU = 0.000 seconds

pair_style	lj/cut 2.5
pair_coeff	* * 1.0 1.0
pair_coeff	1 2 1.0 1.0 5.0
mass		* 1.0

neigh_modify	delay 0

group		addatoms type 2
0 atoms in group addatoms
region          mobile block 0 5 0 5 2 INF
group		mobile region mobile
100 atoms in group mobile

compute		add addatoms temp
compute_modify	add dynamic/dof yes extra/dof 0

fix		1 addatoms nve
fix		2 mobile langevin 1.0 1.0 0.1 587283
fix		3 mobile nve

region          slab block 0 5 0 5 8 9
fix		4 addatoms deposit 100 2 100 12345 region slab near 1.0                 vz -1.0 -1.0
fix		5 addatoms wall/reflect zhi EDGE

thermo_style	custom step atoms temp epair etotal press
thermo          100
thermo_modify	temp add
WARNING: Temperature for thermo pressure is not for group all (src/thermo.cpp:570)

#dump		1 all atom 50 dump.deposit.atom

#dump            viz all image 50 deposit_atom-*.ppm type type #                size 600 800 zoom 1.6 view 80 -30  center s 0.5 0.4 0.48 #                shiny 0.4 fsaa yes axes yes 0.5 0.1
#dump_modify     viz pad 6 backcolor black backcolor2 white adiam * 1.5 #                color myred 0.9 0.05 0.05 acolor 1 myred acolor 2 forestgreen boxcolor gold
#

#dump            viz all movie 50 deposit_atom.mp4 type type #                size 600 800 zoom 1.6 view 80 -30  center s 0.5 0.4 0.48 #                shiny 0.4 fsaa yes axes yes 0.5 0.1
#dump_modify     viz backcolor black backcolor2 white adiam * 1.5 #                color myred 0.9 0.05 0.05 acolor 1 myred acolor 2 forestgreen boxcolor gold
#

run             10000
Generated 0 of 1 mixed pair_coeff terms from geometric mixing rule
Neighbor list info ...
  update: every = 1 steps, delay = 0 steps, check = yes
  max neighbors/atom: 2000, page size: 100000
  master list distance cutoff = 5.3
  ghost atom cutoff = 5.3
  binsize = 2.65, bins = 3 3 6
  1 neighbor lists, perpetual/occasional/extra = 1 0 0
  (1) pair lj/cut, perpetual
      attributes: half, newton on
      pair build: half/bin/atomonly/newton
      stencil: half/bin/3d
      bin: standard
Per MPI rank memory allocation (min/avg/max) = 3.118 | 3.118 | 3.118 Mbytes
   Step        Atoms         Temp          E_pair         TotEng         Press     
         0         300   0             -6.7815824     -6.7815824     -0.83558412   
       100         301   0.83994737    -6.3596494     -6.3554636     -0.35638302   
       200         302   0.83994737    -6.1700153     -6.1616714     -0.38111252   
       300         303   0.83994737    -6.1496599     -6.1371854     -0.48597422   
       400         304   0.83994737    -5.9831063     -5.9665284     -0.4176428    
       500         305   0.83994784    -5.9375123     -5.9168579     -0.51926523   
       600         306   0.84029096    -5.9033285     -5.878614      -0.5678077    
       700         307   0.84255372    -5.8136231     -5.7848061     -0.56127632   
       800         308   0.86461883    -5.7207602     -5.6870737     -0.53429051   
       900         309   0.91135939    -5.7251141     -5.6852975     -0.51853827   
      1000         310   0.85166464    -5.65898       -5.6177704     -0.61940596   
      1100         311   1.0214081     -5.6743313     -5.6201408     -0.62310936   
      1200         312   1.411808      -5.5999754     -5.518525      -0.48935031   
      1300         313   0.88314547    -5.6087664     -5.5537461     -0.56788359   
      1400         314   1.315961      -5.5584998     -5.4704897     -0.58006656   
      1500         315   0.74946568    -5.5466049     -5.4930717     -0.64665933   
      1600         316   0.74327398    -5.5672079     -5.5107567     -0.65243405   
      1700         317   0.9732219     -5.4754        -5.3971125     -0.55561699   
      1800         318   1.1927699     -5.4920355     -5.3907626     -0.62526174   
      1900         319   1.0434557     -5.4412223     -5.3479982     -0.50949277   
      2000         320   1.1289125     -5.5005229     -5.3946874     -0.59401429   
      2100         321   1.0238946     -5.4803202     -5.3798445     -0.56505288   
      2200         322   1.4414033     -5.528176      -5.3804546     -0.704981     
      2300         323   1.0328516     -5.4950691     -5.3847491     -0.59362663   
      2400         324   1.14525       -5.4912784     -5.3640284     -0.59961391   
      2500         325   1.0235155     -5.4926042     -5.3745063     -0.56837933   
      2600         326   0.8500818     -5.4938859     -5.392189      -0.64592942   
      2700         327   0.91113332    -5.4268219     -5.3139751     -0.49163933   
      2800         328   1.0417311     -5.5042111     -5.3708187     -0.59785762   
      2900         329   0.98225693    -5.6073378     -5.4774649     -0.53718671   
      3000         330   1.2589358     -5.6295687     -5.4578956     -0.5476361    
      3100         331   0.93418905    -5.5763901     -5.4451521     -0.54538737   
      3200         332   0.91428781    -5.5208042     -5.388618      -0.60554976   
      3300         333   0.97684035    -5.5040442     -5.3588382     -0.64085342   
      3400         334   1.1673409     -5.5951499     -5.4169032     -0.65016659   
      3500         335   1.3748428     -5.595416      -5.3799556     -0.5055688    
      3600         336   1.025724      -5.5975063     -5.4326578     -0.67327146   
      3700         337   1.0109221     -5.5107561     -5.3442689     -0.60545489   
      3800         338   1.0599405     -5.4874719     -5.3087245     -0.52037415   
      3900         339   1.07576       -5.483501      -5.297861      -0.59916929   
      4000         340   1.1914308     -5.5043215     -5.294069      -0.67764258   
      4100         341   1.0643306     -5.4261123     -5.2341583     -0.58076529   
      4200         342   1.1157609     -5.4498886     -5.2443537     -0.60138043   
      4300         343   1.3996858     -5.5392114     -5.2760052     -0.63368575   
      4400         344   1.0598541     -5.5184733     -5.3151292     -0.61377819   
      4500         345   1.0441546     -5.4621165     -5.2578254     -0.57113702   
      4600         346   1.0923316     -5.4832253     -5.2653904     -0.5214659    
      4700         347   0.99707057    -5.4610905     -5.2585156     -0.53165712   
      4800         348   0.84972606    -5.4047435     -5.2289381     -0.58105891   
      4900         349   0.99155549    -5.4090785     -5.2002552     -0.64105043   
      5000         350   0.93387646    -5.3452482     -5.1451318     -0.44543517   
      5100         351   0.89678578    -5.3168152     -5.1213619     -0.56139446   
      5200         352   1.0426366     -5.395335      -5.1642962     -0.63289154   
      5300         353   1.1058257     -5.3413864     -5.0923407     -0.51240701   
      5400         354   0.90032301    -5.3349606     -5.1289544     -0.5179412    
      5500         355   0.97472276    -5.3035363     -5.0770162     -0.51316401   
      5600         356   1.0008577     -5.3778868     -5.1417294     -0.66778511   
      5700         357   1.0181693     -5.3715052     -5.1276579     -0.64245306   
      5800         358   0.83644224    -5.3237836     -5.1205141     -0.50429227   
      5900         359   1.0091979     -5.3868658     -5.1380802     -0.64185368   
      6000         360   1.2331759     -5.3303719     -5.0220779     -0.47545346   
      6100         361   1.1167378     -5.36323       -5.0801787     -0.66334292   
      6200         362   1.0276944     -5.283164      -5.0191431     -0.63748895   
      6300         363   1.1585681     -5.2629785     -4.9613678     -0.64547574   
      6400         364   1.0106676     -5.2323857     -4.965836      -0.61847108   
      6500         365   1.0169688     -5.264435      -4.992779      -0.66123655   
      6600         366   1.0881612     -5.2731492     -4.9788105     -0.45627147   
      6700         367   1.1358203     -5.3094636     -4.9984283     -0.47831311   
      6800         368   1.2416847     -5.2934188     -4.9492562     -0.5024039    
      6900         369   1.2142824     -5.2853715     -4.9447801     -0.59178854   
      7000         370   1.1693279     -5.277713      -4.9458767     -0.5617558    
      7100         371   1.0040281     -5.2894435     -5.0012252     -0.56479865   
      7200         372   1.0139719     -5.2798511     -4.9854721     -0.54539716   
      7300         373   1.1299235     -5.2939313     -4.9622245     -0.56948873   
      7400         374   1.1034379     -5.3477649     -5.020274      -0.61045267   
      7500         375   0.99146628    -5.3128404     -5.0154005     -0.504323     
      7600         376   1.1466154     -5.3562599     -5.0086159     -0.56312585   
      7700         377   1.2318288     -5.368398      -4.9910075     -0.62988391   
      7800         378   1.1266297     -5.3692107     -5.020492      -0.6361857    
      7900         379   1.1666752     -5.3347732     -4.9699948     -0.6022105    
      8000         380   0.90500853    -5.3200044     -5.0342122     -0.62273023   
      8100         381   0.9996634     -5.2997108     -4.9809205     -0.50275988   
      8200         382   0.9678656     -5.3549041     -5.0432615     -0.5570786    
      8300         383   1.025938      -5.3006908     -4.967194      -0.4564836    
      8400         384   1.0903785     -5.338803      -4.9810225     -0.57913093   
      8500         385   1.0543159     -5.2254567     -4.8763002     -0.42259567   
      8600         386   1.0571975     -5.3080728     -4.9547607     -0.56757907   
      8700         387   1.0740787     -5.2422081     -4.8800188     -0.46506125   
      8800         388   1.1479141     -5.2825658     -4.8920384     -0.51909951   
      8900         389   1.1883538     -5.2939322     -4.8861038     -0.60422925   
      9000         390   1.0292226     -5.3033029     -4.9470335     -0.61633792   
      9100         391   1.1260062     -5.2066011     -4.8135069     -0.46065801   
      9200         392   0.93023204    -5.2219756     -4.894496      -0.42476963   
      9300         393   1.1362751     -5.3117593     -4.908425      -0.52915695   
      9400         394   1.1382269     -5.2424063     -4.8350713     -0.52861796   
      9500         395   1.1243874     -5.2435632     -4.8379298     -0.44982237   
      9600         396   1.0147727     -5.2381522     -4.8691439     -0.36348408   
      9700         397   1.0956597     -5.2917737     -4.8902158     -0.6321413    
      9800         398   1.0345754     -5.250175      -4.8680579     -0.7076839    
      9900         399   1.0828827     -5.1780427     -4.775015      -0.57206048   
     10000         400   1.0312245     -5.2280205     -4.8413113     -0.64929463   
Loop time of 1.57632 on 1 procs for 10000 steps with 400 atoms

Performance: 2740559.538 tau/day, 6343.888 timesteps/s, 2.538 Matom-step/s
99.6% CPU use with 1 MPI tasks x 1 OpenMP threads

MPI task timing breakdown:
Section |  min time  |  avg time  |  max time  |%varavg| %total
---------------------------------------------------------------
Pair    | 0.78309    | 0.78309    | 0.78309    |   0.0 | 49.68
Neigh   | 0.68443    | 0.68443    | 0.68443    |   0.0 | 43.42
Comm    | 0.041813   | 0.041813   | 0.041813   |   0.0 |  2.65
Output  | 0.00050602 | 0.00050602 | 0.00050602 |   0.0 |  0.03
Modify  | 0.056526   | 0.056526   | 0.056526   |   0.0 |  3.59
Other   |            | 0.009955   |            |       |  0.63

Nlocal:            400 ave         400 max         400 min
Histogram: 1 0 0 0 0 0 0 0 0 0
Nghost:           1844 ave        1844 max        1844 min
Histogram: 1 0 0 0 0 0 0 0 0 0
Neighs:          27475 ave       27475 max       27475 min
Histogram: 1 0 0 0 0 0 0 0 0 0

Total # of neighbors = 27475
Ave neighs/atom = 68.6875
Neighbor list builds = 1134
Dangerous builds = 0
Total wall time: 0:00:01
