LAMMPS (4 Jul 2026 - Development - patch_4Jul2026-1067-g777d22319c-modified)
  using 1 OpenMP thread(s) per MPI task
# sample surface deposition script for atoms

units		lj
atom_style      atomic
boundary        p p f

lattice		fcc 1.0 origin 0.25 0.25 0.25
Lattice spacing in x,y,z = 1.5874011 1.5874011 1.5874011
region          box block 0 5 0 5 0 10
create_box      2 box
Created orthogonal box = (0 0 0) to (7.9370053 7.9370053 15.874011)
  1 by 1 by 4 MPI processor grid

region		substrate block INF INF INF INF INF 3
create_atoms	1 region substrate
Created 300 atoms
  using lattice units in orthogonal box = (0 0 0) to (7.9370053 7.9370053 15.874011)
  create_atoms CPU = 0.000 seconds

pair_style	lj/cut 2.5
pair_coeff	* * 1.0 1.0
pair_coeff	1 2 1.0 1.0 5.0
mass		* 1.0

neigh_modify	delay 0

group		addatoms type 2
0 atoms in group addatoms
region          mobile block 0 5 0 5 2 INF
group		mobile region mobile
100 atoms in group mobile

compute		add addatoms temp
compute_modify	add dynamic/dof yes extra/dof 0

fix		1 addatoms nve
fix		2 mobile langevin 1.0 1.0 0.1 587283
fix		3 mobile nve

region          slab block 0 5 0 5 8 9
fix		4 addatoms deposit 100 2 100 12345 region slab near 1.0                 vz -1.0 -1.0
fix		5 addatoms wall/reflect zhi EDGE

thermo_style	custom step atoms temp epair etotal press
thermo          100
thermo_modify	temp add
WARNING: Temperature for thermo pressure is not for group all (src/thermo.cpp:570)

#dump		1 all atom 50 dump.deposit.atom

#dump            viz all image 50 deposit_atom-*.ppm type type #                size 600 800 zoom 1.6 view 80 -30  center s 0.5 0.4 0.48 #                shiny 0.4 fsaa yes axes yes 0.5 0.1
#dump_modify     viz pad 6 backcolor black backcolor2 white adiam * 1.5 #                color myred 0.9 0.05 0.05 acolor 1 myred acolor 2 forestgreen boxcolor gold
#

#dump            viz all movie 50 deposit_atom.mp4 type type #                size 600 800 zoom 1.6 view 80 -30  center s 0.5 0.4 0.48 #                shiny 0.4 fsaa yes axes yes 0.5 0.1
#dump_modify     viz backcolor black backcolor2 white adiam * 1.5 #                color myred 0.9 0.05 0.05 acolor 1 myred acolor 2 forestgreen boxcolor gold
#

run             10000
Generated 0 of 1 mixed pair_coeff terms from geometric mixing rule
Neighbor list info ...
  update: every = 1 steps, delay = 0 steps, check = yes
  max neighbors/atom: 2000, page size: 100000
  master list distance cutoff = 5.3
  ghost atom cutoff = 5.3
  binsize = 2.65, bins = 3 3 6
  1 neighbor lists, perpetual/occasional/extra = 1 0 0
  (1) pair lj/cut, perpetual
      attributes: half, newton on
      pair build: half/bin/atomonly/newton
      stencil: half/bin/3d
      bin: standard
Per MPI rank memory allocation (min/avg/max) = 2.941 | 3.087 | 3.214 Mbytes
   Step        Atoms         Temp          E_pair         TotEng         Press     
         0         300   0             -6.7815824     -6.7815824     -0.83558412   
       100         301   0.83994737    -6.3287055     -6.3245197     -0.28087741   
       200         302   0.83994737    -6.2349311     -6.2265873     -0.39497114   
       300         303   0.83994737    -6.1637818     -6.1513073     -0.5058819    
       400         304   0.83994737    -6.0341724     -6.0175945     -0.51825063   
       500         305   0.83994737    -5.9291802     -5.9085257     -0.57177614   
       600         306   0.84020492    -5.8739116     -5.8491997     -0.48218818   
       700         307   0.84190077    -5.8649589     -5.8361642     -0.53801036   
       800         308   0.85547585    -5.8801612     -5.846831      -0.57820157   
       900         309   0.91134834    -5.8157918     -5.7759757     -0.50018271   
      1000         310   1.1392613     -5.7960324     -5.7409068     -0.63367098   
      1100         311   1.2049596     -5.7805752     -5.7166464     -0.59366905   
      1200         312   1.1578882     -5.7617727     -5.6949714     -0.60033171   
      1300         313   1.0086809     -5.7317242     -5.6688831     -0.52751246   
      1400         314   1.216139      -5.7000205     -5.6186863     -0.56934037   
      1500         315   1.416141      -5.6616106     -5.5604577     -0.51315825   
      1600         316   1.0757859     -5.6551885     -5.5734832     -0.65033486   
      1700         317   0.98811085    -5.6894876     -5.6100023     -0.62736205   
      1800         318   1.0829354     -5.6528181     -5.5608708     -0.48895016   
      1900         319   0.97985973    -5.6149499     -5.5274076     -0.53245543   
      2000         320   1.3355287     -5.6568243     -5.5316185     -0.52395181   
      2100         321   0.96134153    -5.631645      -5.5373078     -0.53172449   
      2200         322   0.87609621    -5.6113231     -5.5215369     -0.52110663   
      2300         323   0.96859229    -5.5959288     -5.4924723     -0.61468539   
      2400         324   1.0441294     -5.5569649     -5.4409506     -0.6627607    
      2500         325   1.2294375     -5.5422521     -5.400394      -0.61972596   
      2600         326   0.96466432    -5.5478562     -5.4324515     -0.59696659   
      2700         327   0.94586894    -5.5401602     -5.4230113     -0.49382453   
      2800         328   1.107679      -5.530018      -5.388181      -0.56032327   
      2900         329   0.95374512    -5.5018791     -5.375776      -0.5170815    
      3000         330   0.9341908     -5.5495764     -5.4221868     -0.5542502    
      3100         331   0.93250777    -5.5395603     -5.4085584     -0.64874457   
      3200         332   1.1582954     -5.5354025     -5.3679381     -0.56280632   
      3300         333   1.0791303     -5.4900692     -5.329658      -0.49832961   
      3400         334   0.92126734    -5.5322451     -5.3915725     -0.58156487   
      3500         335   1.1651506     -5.5560607     -5.3734624     -0.63161182   
      3600         336   1.131405      -5.5352838     -5.3534509     -0.57533484   
      3700         337   0.94774218    -5.4743813     -5.3182991     -0.55843091   
      3800         338   0.7639394     -5.472095      -5.343265      -0.60118341   
      3900         339   0.83595863    -5.4336509     -5.2893925     -0.54276815   
      4000         340   1.0515175     -5.3797713     -5.1942094     -0.53594083   
      4100         341   0.99926302    -5.2955648     -5.1153458     -0.54343677   
      4200         342   0.97949765    -5.3451314     -5.1646976     -0.60926504   
      4300         343   0.85671244    -5.3342958     -5.1731939     -0.63721173   
      4400         344   0.91362105    -5.3016343     -5.1263466     -0.54178092   
      4500         345   0.96114279    -5.2963382     -5.1082885     -0.61109985   
      4600         346   0.93633761    -5.2961246     -5.1093983     -0.5852715    
      4700         347   1.1997267     -5.3322792     -5.0885307     -0.69424596   
      4800         348   1.0922649     -5.3126566     -5.0866708     -0.64349825   
      4900         349   0.97042635    -5.2771648     -5.0727913     -0.49229646   
      5000         350   0.9915418     -5.2757096     -5.0632364     -0.47516922   
      5100         351   1.1263827     -5.3004182     -5.0549245     -0.55043646   
      5200         352   1.1062816     -5.3112306     -5.0660887     -0.61081803   
      5300         353   0.91649653    -5.3249504     -5.118544      -0.6253493    
      5400         354   0.85419151    -5.2619563     -5.0665057     -0.65387934   
      5500         355   0.90200392    -5.2794617     -5.069841      -0.62751658   
      5600         356   1.0574703     -5.3004233     -5.0509079     -0.6235317    
      5700         357   1.1631574     -5.2611765     -4.9826052     -0.59199676   
      5800         358   1.1792126     -5.1998396     -4.9132711     -0.43151435   
      5900         359   1.1252721     -5.2665238     -4.9891239     -0.62678831   
      6000         360   1.1407098     -5.241056      -4.9558785     -0.54729591   
      6100         361   1.1636283     -5.2149441     -4.9200079     -0.5760245    
      6200         362   1.0015479     -5.2021673     -4.9448635     -0.54827458   
      6300         363   1.196684      -5.2433237     -4.9317903     -0.58858581   
      6400         364   1.0148921     -5.2336801     -4.9660162     -0.55952533   
      6500         365   1.0241301     -5.1766544     -4.9030854     -0.60091212   
      6600         366   1.0511747     -5.1944274     -4.9100933     -0.58586799   
      6700         367   1.2098008     -5.1926329     -4.8613387     -0.61049591   
      6800         368   1.3036967     -5.1600673     -4.7987166     -0.58556701   
      6900         369   1.1287884     -5.09246       -4.7758486     -0.46518904   
      7000         370   1.0785602     -5.1789258     -4.8728479     -0.64504936   
      7100         371   1.0938403     -5.1785412     -4.8645412     -0.60980946   
      7200         372   1.1629265     -5.2039187     -4.8662949     -0.62923797   
      7300         373   1.0201177     -5.1688225     -4.869351      -0.57050058   
      7400         374   1.0828882     -5.2137498     -4.8923578     -0.64372998   
      7500         375   1.2312552     -5.1803455     -4.8109689     -0.58729003   
      7600         376   1.1437154     -5.1661229     -4.8193582     -0.48641594   
      7700         377   1.0881174     -5.2300312     -4.896669      -0.59874483   
      7800         378   1.0926142     -5.159885      -4.8216949     -0.45032538   
      7900         379   0.96004757    -5.1713502     -4.871177      -0.55803495   
      8000         380   1.1361732     -5.1901673     -4.8313758     -0.69118934   
      8100         381   1.1275691     -5.1766205     -4.8170413     -0.60445902   
      8200         382   1.1015711     -5.1686979     -4.8140035     -0.61000506   
      8300         383   1.1626995     -5.1176014     -4.7396481     -0.56291802   
      8400         384   0.99069036    -5.1074162     -4.7823459     -0.59000732   
      8500         385   1.006385      -5.1443724     -4.8110891     -0.63557584   
      8600         386   1.0892928     -5.2018668     -4.8378285     -0.61257545   
      8700         387   1.151542      -5.2503597     -4.8620491     -0.6411177    
      8800         388   1.0264362     -5.2278556     -4.8786556     -0.57299167   
      8900         389   1.076364      -5.2735376     -4.9041427     -0.63176917   
      9000         390   0.93860589    -5.2220981     -4.8971961     -0.54016068   
      9100         391   0.87529703    -5.2045671     -4.8989967     -0.58446135   
      9200         392   1.1430415     -5.275744      -4.8733468     -0.59368419   
      9300         393   1.1021605     -5.3170333     -4.9258084     -0.60472368   
      9400         394   1.2905576     -5.2416019     -4.7797526     -0.46999141   
      9500         395   1.0492998     -5.2111057     -4.8325608     -0.52412508   
      9600         396   1.2618222     -5.2273745     -4.76853       -0.46252181   
      9700         397   1.2279698     -5.2806305     -4.8305811     -0.67384021   
      9800         398   1.1274289     -5.2459228     -4.8295106     -0.50953586   
      9900         399   1.0459562     -5.2712976     -4.8820132     -0.57493199   
     10000         400   1.13346       -5.2478912     -4.8228437     -0.45565984   
Loop time of 1.28971 on 4 procs for 10000 steps with 400 atoms

Performance: 3349600.880 tau/day, 7753.706 timesteps/s, 3.101 Matom-step/s
95.8% CPU use with 4 MPI tasks x 1 OpenMP threads

MPI task timing breakdown:
Section |  min time  |  avg time  |  max time  |%varavg| %total
---------------------------------------------------------------
Pair    | 0.00075714 | 0.1792     | 0.52461    |  50.4 | 13.89
Neigh   | 0.0020391  | 0.17855    | 0.57565    |  55.5 | 13.84
Comm    | 0.14541    | 0.68523    | 1.1876     |  48.7 | 53.13
Output  | 0.00058256 | 0.0036886  | 0.012036   |   7.9 |  0.29
Modify  | 0.0027753  | 0.015448   | 0.0308     |  10.1 |  1.20
Other   |            | 0.2276     |            |       | 17.65

Nlocal:            100 ave         241 max           7 min
Histogram: 2 0 0 0 0 1 0 0 0 1
Nghost:        1399.75 ave        2086 max         261 min
Histogram: 1 0 0 0 0 0 1 0 1 1
Neighs:        6997.75 ave       19100 max           7 min
Histogram: 2 0 0 0 1 0 0 0 0 1

Total # of neighbors = 27991
Ave neighs/atom = 69.9775
Neighbor list builds = 1134
Dangerous builds = 0
Total wall time: 0:00:01
