LAMMPS (4 Jul 2026 - Development - patch_4Jul2026-1067-g777d22319c-modified)
  using 1 OpenMP thread(s) per MPI task
# sample surface deposition script for molecules

units		lj
atom_style      bond
boundary        p p f

lattice		fcc 1.0
Lattice spacing in x,y,z = 1.5874011 1.5874011 1.5874011
region          box block 0 5 0 5 0 10
create_box      3 box bond/types 1 extra/bond/per/atom 1
Created orthogonal box = (0 0 0) to (7.9370053 7.9370053 15.874011)
  1 by 1 by 1 MPI processor grid

region		substrate block INF INF INF INF INF 3
create_atoms	1 region substrate
Created 350 atoms
  using lattice units in orthogonal box = (0 0 0) to (7.9370053 7.9370053 15.874011)
  create_atoms CPU = 0.000 seconds

pair_style	lj/cut 2.5
pair_coeff	* * 1.0 1.0
pair_coeff	1 2 1.0 1.0 5.0
mass		* 1.0

bond_style	harmonic
bond_coeff      1 5.0 1.0

neigh_modify	delay 0

group		addatoms type 2
0 atoms in group addatoms
region          mobile block 0 5 0 5 2 INF
group		mobile region mobile
150 atoms in group mobile

compute		add addatoms temp
compute_modify	add dynamic/dof yes extra/dof 0

fix		1 addatoms nve
fix		2 mobile langevin 0.1 0.1 0.1 587283
fix		3 mobile nve

molecule        dimer molecule.dimer
Read molecule template dimer:
# dimer molecule
  1 molecules
  0 fragments
  0 bodies
  2 atoms with max type 3
  1 bonds with max type 1
  0 angles with max type 0
  0 dihedrals with max type 0
  0 impropers with max type 0
region          slab block 0 5 0 5 8 9
fix		4 addatoms deposit 100 0 100 12345 region slab near 1.0                 mol dimer vz -1.0 -1.0
fix		5 addatoms wall/reflect zhi EDGE

thermo_style	custom step atoms temp epair etotal press
thermo          100
thermo_modify	temp add lost/bond ignore lost warn
WARNING: Temperature for thermo pressure is not for group all (src/thermo.cpp:570)

#dump		1 all atom 50 dump.deposit.atom

#dump            viz all image 50 deposit_molecule-*.ppm type type bond atom type #                size 600 800 zoom 1.6 view 80 -30  center s 0.5 0.4 0.48 #                shiny 0.4 fsaa yes axes yes 0.5 0.1
#dump_modify     viz pad 6 backcolor black backcolor2 white adiam * 0.75 adiam 1 1.5 #                color myred 0.9 0.05 0.05 acolor 1 myred acolor 2 forestgreen boxcolor gold
#

#dump            viz all movie 50 deposit_molecule.mp4 type type bond atom type #                size 600 800 zoom 1.6 view 80 -30  center s 0.5 0.4 0.48 #                shiny 0.4 fsaa yes axes yes 0.5 0.1
#dump_modify     viz backcolor black backcolor2 white adiam * 0.75 adiam 1 1.5 #                color myred 0.9 0.05 0.05 acolor 1 myred acolor 2 forestgreen boxcolor gold
#


run             10000
Generated 0 of 3 mixed pair_coeff terms from geometric mixing rule
Neighbor list info ...
  update: every = 1 steps, delay = 0 steps, check = yes
  max neighbors/atom: 2000, page size: 100000
  master list distance cutoff = 5.3
  ghost atom cutoff = 5.3
  binsize = 2.65, bins = 3 3 6
  1 neighbor lists, perpetual/occasional/extra = 1 0 0
  (1) pair lj/cut, perpetual
      attributes: half, newton on
      pair build: half/bin/newton
      stencil: half/bin/3d
      bin: standard
Per MPI rank memory allocation (min/avg/max) = 4.152 | 4.152 | 4.152 Mbytes
   Step        Atoms         Temp          E_pair         TotEng         Press     
         0         350   0             -6.9215833     -6.9215833     -1.0052629    
       100         352   0.83994737    -6.8875167     -6.8803581     -0.73353914   
       200         354   0.84013301    -6.8594646     -6.8452248     -0.7042185    
       300         356   0.8404888     -6.8171527     -6.7959042     -0.69178468   
       400         358   0.8416027     -6.7852706     -6.75706       -0.70370199   
       500         360   0.84502226    -6.7493452     -6.7141339     -0.68416758   
       600         362   0.85510041    -6.7105238     -6.6680032     -0.6831681    
       700         364   0.89240505    -6.6726538     -6.6211539     -0.65935754   
       800         366   0.90007357    -6.6406036     -6.5813415     -0.68753033   
       900         368   0.9291547     -6.6106232     -6.5413514     -0.66699885   
      1000         370   1.0723904     -6.5976455     -6.5100202     -0.69278397   
      1100         372   1.0595632     -6.6048192     -6.503447      -0.67532487   
      1200         374   0.78648297    -6.613834      -6.5218783     -0.68617585   
      1300         376   0.72013637    -6.5811509     -6.499087      -0.64805635   
      1400         378   0.65935496    -6.5816969     -6.5024858     -0.61208872   
      1500         380   0.7730911     -6.5744038     -6.4781427     -0.68445955   
      1600         382   0.85571409    -6.5691422     -6.4550991     -0.63738054   
      1700         384   0.66527305    -6.5612167     -6.4686074     -0.58942257   
      1800         386   0.62263833    -6.5581424     -6.4609047     -0.66374974   
      1900         388   0.54812412    -6.5645791     -6.4692241     -0.64618274   
      2000         390   0.55267835    -6.5490475     -6.4537572     -0.65299501   
      2100         392   0.60423127    -6.5293138     -6.4266602     -0.67525055   
      2200         394   0.66349948    -6.5309129     -6.4080994     -0.72526587   
      2300         396   0.71095098    -6.5596804     -6.4248617     -0.62255203   
      2400         398   0.66230479    -6.5903861     -6.4524016     -0.58246235   
      2500         400   0.5217816     -6.5926409     -6.4838121     -0.68924613   
      2600         402   0.49210147    -6.6015831     -6.4921749     -0.72316985   
      2700         404   0.45478357    -6.5964867     -6.4866907     -0.72708704   
      2800         406   0.53015538    -6.6097839     -6.4697281     -0.71938511   
      2900         408   0.44890532    -6.6236288     -6.4975604     -0.67777268   
      3000         410   0.38881507    -6.6224802     -6.5118401     -0.75071074   
      3100         412   0.57968334    -6.6377435     -6.4816116     -0.7126799    
      3200         414   0.43178989    -6.6616499     -6.5177564     -0.75946855   
      3300         416   0.41931663    -6.6535677     -6.5188972     -0.77294708   
      3400         418   0.48018241    -6.6620249     -6.5113285     -0.71701766   
      3500         420   0.40583458    -6.6725386     -6.5461955     -0.67998874   
      3600         422   0.35575242    -6.6834418     -6.5585525     -0.70666861   
      3700         424   0.41141465    -6.7173027     -6.5675879     -0.72149562   
      3800         426   0.453088      -6.7321049     -6.5691688     -0.73744392   
      3900         428   0.37455752    -6.7476488     -6.588124      -0.65930074   
      4000         430   0.33009442    -6.7388173     -6.5985317     -0.72969069   
      4100         432   0.38236349    -6.7505078     -6.5946973     -0.77532702   
      4200         434   0.33939843    -6.7444275     -6.597236      -0.70331425   
      4300         436   0.33972713    -6.7462804     -6.5951546     -0.75160646   
      4400         438   0.39166133    -6.7467722     -6.5806426     -0.68916499   
      4500         440   0.31590465    -6.7423111     -6.5923222     -0.73688674   
      4600         442   0.31892127    -6.7487585     -6.5868137     -0.6770475    
      4700         444   0.30246079    -6.7387086     -6.5692086     -0.73453707   
      4800         446   0.37383248    -6.7485139     -6.5587693     -0.74697271   
      4900         448   0.39853859    -6.7449425     -6.5496097     -0.80086836   
      5000         450   0.37131717    -6.7517392     -6.5596509     -0.74618155   
      5100         452   0.35586206    -6.7652606     -6.5746863     -0.67680303   
      5200         454   0.29995397    -6.7574796     -6.5759338     -0.72157839   
      5300         456   0.32046986    -6.7590661     -6.5768142     -0.71395851   
      5400         458   0.3395329     -6.7539392     -6.5594534     -0.7920203    
      5500         460   0.45417064    -6.8072289     -6.5632752     -0.70613043   
      5600         462   0.38860417    -6.788736      -6.580994      -0.73301349   
      5700         464   0.36253155    -6.8054903     -6.5947345     -0.81502035   
      5800         466   0.34556562    -6.8380787     -6.6192115     -0.7332256    
      5900         468   0.3312562     -6.8347626     -6.624666      -0.6915811    
      6000         470   0.31990265    -6.8550083     -6.6315804     -0.82461913   
      6100         472   0.32576136    -6.8544087     -6.6316697     -0.74143138   
      6200         474   0.3278545     -6.8822839     -6.6463489     -0.77274158   
      6300         476   0.29579607    -6.8872635     -6.6564276     -0.6943803    
      6400         478   0.31136598    -6.892633      -6.6574358     -0.74114363   
      6500         480   0.34259828    -6.9055615     -6.6567791     -0.7467187    
      6600         482   0.31395867    -6.9052921     -6.6610529     -0.79511312   
      6700         484   0.33439593    -6.8907692     -6.6501195     -0.80815786   
      6800         486   0.41391797    -6.927702      -6.6500298     -0.70305561   
      6900         488   0.34355252    -6.9177066     -6.6631572     -0.61071176   
      7000         490   0.30661305    -6.94179       -6.6976829     -0.77775447   
      7100         492   0.3116417     -6.9572136     -6.702313      -0.75176233   
      7200         494   0.30522891    -6.9554011     -6.6985237     -0.77696184   
      7300         496   0.30849877    -6.9828999     -6.7069724     -0.76951772   
      7400         498   0.31116057    -6.9854049     -6.7123856     -0.74917151   
      7500         500   0.30826349    -6.9800919     -6.7100532     -0.74985657   
      7600         502   0.29687718    -6.9736859     -6.7113207     -0.76675795   
      7700         504   0.26273433    -6.9767866     -6.7214637     -0.75380259   
      7800         506   0.28137763    -6.991648      -6.724611      -0.77029709   
      7900         508   0.26388725    -6.9922298     -6.7319355     -0.85669335   
      8000         510   0.28924364    -7.0080541     -6.7258013     -0.81685994   
      8100         512   0.27812174    -7.0060127     -6.7320526     -0.71177912   
      8200         514   0.31696042    -7.0191792     -6.7240236     -0.87001064   
      8300         516   0.27138011    -7.0108744     -6.7256109     -0.82824403   
      8400         518   0.31296159    -7.0396215     -6.7269955     -0.7728249    
      8500         520   0.31020461    -7.0407202     -6.7331374     -0.80134965   
      8600         522   0.30676708    -7.0544381     -6.7395851     -0.83910074   
      8700         524   0.27491538    -7.0641795     -6.7473488     -0.86465638   
      8800         526   0.30498025    -7.0662466     -6.7448778     -0.77977035   
      8900         528   0.30342178    -7.0693342     -6.7462518     -0.82599505   
      9000         530   0.26482759    -7.0590082     -6.7576066     -0.79372185   
      9100         532   0.28831731    -7.0749423     -6.7582594     -0.81070326   
      9200         534   0.25369838    -7.0582421     -6.7438917     -0.837919     
      9300         536   0.30932538    -7.0844552     -6.7534221     -0.89021315   
      9400         538   0.28031368    -7.094479      -6.7604904     -0.83685047   
      9500         540   0.28271987    -7.0958494     -6.7672879     -0.7854593    
      9600         542   0.25454353    -7.0896094     -6.7724145     -0.80715357   
      9700         544   0.29090372    -7.1114638     -6.7697637     -0.80060675   
      9800         546   0.27162198    -7.120434      -6.7785788     -0.76781831   
      9900         548   0.25298965    -7.1244253     -6.7844118     -0.72436022   
     10000         550   0.27736048    -7.1390896     -6.7927195     -0.85236676   
Loop time of 2.08722 on 1 procs for 10000 steps with 550 atoms

Performance: 2069740.893 tau/day, 4791.067 timesteps/s, 2.635 Matom-step/s
99.5% CPU use with 1 MPI tasks x 1 OpenMP threads

MPI task timing breakdown:
Section |  min time  |  avg time  |  max time  |%varavg| %total
---------------------------------------------------------------
Pair    | 1.0722     | 1.0722     | 1.0722     |   0.0 | 51.37
Bond    | 0.002887   | 0.002887   | 0.002887   |   0.0 |  0.14
Neigh   | 0.8731     | 0.8731     | 0.8731     |   0.0 | 41.83
Comm    | 0.049959   | 0.049959   | 0.049959   |   0.0 |  2.39
Output  | 0.00064234 | 0.00064234 | 0.00064234 |   0.0 |  0.03
Modify  | 0.076756   | 0.076756   | 0.076756   |   0.0 |  3.68
Other   |            | 0.01164    |            |       |  0.56

Nlocal:            550 ave         550 max         550 min
Histogram: 1 0 0 0 0 0 0 0 0 0
Nghost:           2341 ave        2341 max        2341 min
Histogram: 1 0 0 0 0 0 0 0 0 0
Neighs:          38256 ave       38256 max       38256 min
Histogram: 1 0 0 0 0 0 0 0 0 0

Total # of neighbors = 38256
Ave neighs/atom = 69.556364
Ave special neighs/atom = 0.36363636
Neighbor list builds = 875
Dangerous builds = 0
Total wall time: 0:00:02
