LAMMPS (4 Jul 2026 - Development - patch_4Jul2026-1067-g777d22319c-modified)
  using 1 OpenMP thread(s) per MPI task
# sample surface deposition script for molecules

units		lj
atom_style      bond
boundary        p p f

lattice		fcc 1.0
Lattice spacing in x,y,z = 1.5874011 1.5874011 1.5874011
region          box block 0 5 0 5 0 10
create_box      3 box bond/types 1 extra/bond/per/atom 1
Created orthogonal box = (0 0 0) to (7.9370053 7.9370053 15.874011)
  1 by 1 by 4 MPI processor grid

region		substrate block INF INF INF INF INF 3
create_atoms	1 region substrate
Created 350 atoms
  using lattice units in orthogonal box = (0 0 0) to (7.9370053 7.9370053 15.874011)
  create_atoms CPU = 0.001 seconds

pair_style	lj/cut 2.5
pair_coeff	* * 1.0 1.0
pair_coeff	1 2 1.0 1.0 5.0
mass		* 1.0

bond_style	harmonic
bond_coeff      1 5.0 1.0

neigh_modify	delay 0

group		addatoms type 2
0 atoms in group addatoms
region          mobile block 0 5 0 5 2 INF
group		mobile region mobile
150 atoms in group mobile

compute		add addatoms temp
compute_modify	add dynamic/dof yes extra/dof 0

fix		1 addatoms nve
fix		2 mobile langevin 0.1 0.1 0.1 587283
fix		3 mobile nve

molecule        dimer molecule.dimer
Read molecule template dimer:
# dimer molecule
  1 molecules
  0 fragments
  0 bodies
  2 atoms with max type 3
  1 bonds with max type 1
  0 angles with max type 0
  0 dihedrals with max type 0
  0 impropers with max type 0
region          slab block 0 5 0 5 8 9
fix		4 addatoms deposit 100 0 100 12345 region slab near 1.0                 mol dimer vz -1.0 -1.0
fix		5 addatoms wall/reflect zhi EDGE

thermo_style	custom step atoms temp epair etotal press
thermo          100
thermo_modify	temp add lost/bond ignore lost warn
WARNING: Temperature for thermo pressure is not for group all (src/thermo.cpp:570)

#dump		1 all atom 50 dump.deposit.atom

#dump            viz all image 50 deposit_molecule-*.ppm type type bond atom type #                size 600 800 zoom 1.6 view 80 -30  center s 0.5 0.4 0.48 #                shiny 0.4 fsaa yes axes yes 0.5 0.1
#dump_modify     viz pad 6 backcolor black backcolor2 white adiam * 0.75 adiam 1 1.5 #                color myred 0.9 0.05 0.05 acolor 1 myred acolor 2 forestgreen boxcolor gold
#

#dump            viz all movie 50 deposit_molecule.mp4 type type bond atom type #                size 600 800 zoom 1.6 view 80 -30  center s 0.5 0.4 0.48 #                shiny 0.4 fsaa yes axes yes 0.5 0.1
#dump_modify     viz backcolor black backcolor2 white adiam * 0.75 adiam 1 1.5 #                color myred 0.9 0.05 0.05 acolor 1 myred acolor 2 forestgreen boxcolor gold
#


run             10000
Generated 0 of 3 mixed pair_coeff terms from geometric mixing rule
Neighbor list info ...
  update: every = 1 steps, delay = 0 steps, check = yes
  max neighbors/atom: 2000, page size: 100000
  master list distance cutoff = 5.3
  ghost atom cutoff = 5.3
  binsize = 2.65, bins = 3 3 6
  1 neighbor lists, perpetual/occasional/extra = 1 0 0
  (1) pair lj/cut, perpetual
      attributes: half, newton on
      pair build: half/bin/newton
      stencil: half/bin/3d
      bin: standard
Per MPI rank memory allocation (min/avg/max) = 3.942 | 4.099 | 4.227 Mbytes
   Step        Atoms         Temp          E_pair         TotEng         Press     
         0         350   0             -6.9215833     -6.9215833     -1.0052629    
       100         352   0.83994737    -6.8946578     -6.8874992     -0.73775337   
       200         354   0.84013301    -6.8645578     -6.850318      -0.69630303   
       300         356   0.8404888     -6.8216773     -6.8004288     -0.69532865   
       400         358   0.8416027     -6.7837927     -6.7555822     -0.68878068   
       500         360   0.84502226    -6.7446732     -6.7094619     -0.72993092   
       600         362   0.85509744    -6.7115455     -6.669025      -0.66474949   
       700         364   0.89238945    -6.6790417     -6.6275428     -0.66696176   
       800         366   0.90000818    -6.6462569     -6.5869991     -0.67861111   
       900         368   0.92921227    -6.6085337     -6.5392414     -0.62935636   
      1000         370   1.060811      -6.5926135     -6.5057816     -0.68476694   
      1100         372   0.90491587    -6.5888548     -6.499389      -0.63926411   
      1200         374   0.92059016    -6.594649      -6.5046478     -0.63424533   
      1300         376   0.8017261     -6.5864542     -6.5012843     -0.6709556    
      1400         378   0.74254831    -6.5756216     -6.4916068     -0.66844835   
      1500         380   0.76978742    -6.5777757     -6.4808562     -0.65008995   
      1600         382   0.87556856    -6.5754648     -6.4621974     -0.62706712   
      1700         384   0.62273351    -6.5848597     -6.4932027     -0.66239135   
      1800         386   0.55404463    -6.5574674     -6.4762426     -0.65948737   
      1900         388   0.51308132    -6.5471792     -6.4655707     -0.71937188   
      2000         390   0.53895418    -6.5174393     -6.4308279     -0.70901525   
      2100         392   0.5840667     -6.5159628     -6.4149054     -0.63545395   
      2200         394   0.63855675    -6.5295488     -6.4084236     -0.68335666   
      2300         396   0.78750894    -6.5536192     -6.4057593     -0.69256639   
      2400         398   0.74708056    -6.588815      -6.437256      -0.64218308   
      2500         400   0.50650347    -6.5945682     -6.4895942     -0.65468097   
      2600         402   0.50076186    -6.6192688     -6.5068278     -0.72639852   
      2700         404   0.51253692    -6.6382404     -6.5144312     -0.66388127   
      2800         406   0.58150894    -6.6495209     -6.5147756     -0.65383196   
      2900         408   0.41532266    -6.6534545     -6.5499495     -0.63542065   
      3000         410   0.41797618    -6.6404654     -6.5326164     -0.69852358   
      3100         412   0.4535087     -6.6562721     -6.5329466     -0.66448474   
      3200         414   0.40637794    -6.6589354     -6.5428382     -0.73643629   
      3300         416   0.38616083    -6.6575911     -6.5390269     -0.6980381    
      3400         418   0.45390737    -6.6718695     -6.535766      -0.72267998   
      3500         420   0.43210937    -6.6854692     -6.5514968     -0.62923731   
      3600         422   0.41400618    -6.6915412     -6.5575256     -0.74033432   
      3700         424   0.36474285    -6.6940142     -6.5714849     -0.72418448   
      3800         426   0.44953191    -6.7168932     -6.5636477     -0.77050224   
      3900         428   0.37224902    -6.7244509     -6.5824449     -0.73249424   
      4000         430   0.34404128    -6.7229015     -6.5942147     -0.66638141   
      4100         432   0.3610839     -6.7236985     -6.5840865     -0.73345414   
      4200         434   0.33778773    -6.7105294     -6.5790301     -0.73005013   
      4300         436   0.33798478    -6.7187065     -6.5818466     -0.73291119   
      4400         438   0.35058615    -6.713518      -6.5707408     -0.73500677   
      4500         440   0.41931298    -6.7340286     -6.5618286     -0.7910763    
      4600         442   0.3465038     -6.7239528     -6.5668159     -0.70457851   
      4700         444   0.33707698    -6.74391       -6.5856347     -0.67125691   
      4800         446   0.28573818    -6.7440992     -6.584253      -0.72390656   
      4900         448   0.35579756    -6.7360846     -6.5591295     -0.83094684   
      5000         450   0.31500495    -6.750917      -6.5705681     -0.75086118   
      5100         452   0.31716439    -6.7451711     -6.5683119     -0.68284623   
      5200         454   0.32840567    -6.754747      -6.5610651     -0.72773589   
      5300         456   0.34415911    -6.7635359     -6.5661904     -0.74848422   
      5400         458   0.3636607     -6.7799144     -6.5668349     -0.75876993   
      5500         460   0.33104612    -6.759923      -6.5620542     -0.74614121   
      5600         462   0.37312408    -6.7804603     -6.5626491     -0.81925582   
      5700         464   0.36835739    -6.8092145     -6.5862084     -0.74187118   
      5800         466   0.43593344    -6.8382426     -6.5924565     -0.76314187   
      5900         468   0.3336927     -6.8508121     -6.6284936     -0.74265382   
      6000         470   0.31618765    -6.8438912     -6.6323365     -0.85385741   
      6100         472   0.33152764    -6.8482815     -6.6324653     -0.7747547    
      6200         474   0.32086977    -6.8630731     -6.6382849     -0.8369052    
      6300         476   0.30295901    -6.8634759     -6.6502277     -0.69792798   
      6400         478   0.29210978    -6.8649575     -6.6488439     -0.76411318   
      6500         480   0.32979287    -6.8738537     -6.638976      -0.83096447   
      6600         482   0.29907514    -6.8693564     -6.6371207     -0.71375406   
      6700         484   0.37866882    -6.9023448     -6.6516565     -0.75739975   
      6800         486   0.31745736    -6.8795852     -6.6504052     -0.79175967   
      6900         488   0.30537075    -6.8848192     -6.6655945     -0.79120345   
      7000         490   0.30795247    -6.896877      -6.6700948     -0.73279966   
      7100         492   0.30433727    -6.9189146     -6.6831686     -0.81638737   
      7200         494   0.32903081    -6.9413481     -6.6855843     -0.80091891   
      7300         496   0.31815882    -6.9358107     -6.6869103     -0.66844691   
      7400         498   0.26807947    -6.9470973     -6.7111186     -0.82350304   
      7500         500   0.27888767    -6.9499314     -6.7094316     -0.80185626   
      7600         502   0.29462644    -6.9580629     -6.708366      -0.84833723   
      7700         504   0.25772704    -6.9365956     -6.7067455     -0.77431752   
      7800         506   0.26641997    -6.9366448     -6.6970439     -0.7929961    
      7900         508   0.27525105    -6.9415622     -6.6949865     -0.78373567   
      8000         510   0.28835438    -6.9686073     -6.6974765     -0.88698762   
      8100         512   0.29527635    -6.9716802     -6.7080138     -0.68146007   
      8200         514   0.28806293    -6.9775213     -6.7095073     -0.81370447   
      8300         516   0.29787803    -6.9665486     -6.7044511     -0.82522048   
      8400         518   0.31949567    -6.9935818     -6.7102023     -0.86752201   
      8500         520   0.27889885    -6.97547       -6.7131493     -0.76477486   
      8600         522   0.26828099    -6.9916782     -6.7277895     -0.81679543   
      8700         524   0.25232809    -6.9848247     -6.7270341     -0.74259526   
      8800         526   0.25745447    -6.9950085     -6.7287131     -0.81986145   
      8900         528   0.2623096     -6.9957417     -6.7294601     -0.83304852   
      9000         530   0.2458422     -6.9832453     -6.7194572     -0.801489     
      9100         532   0.27759821    -6.9981998     -6.7153568     -0.80604062   
      9200         534   0.30918126    -7.0049579     -6.7095311     -0.85946899   
      9300         536   0.30084075    -7.0126611     -6.7205207     -0.72613259   
      9400         538   0.30750838    -7.0227817     -6.7179772     -0.67810112   
      9500         540   0.26158896    -7.0001711     -6.7334798     -0.82507472   
      9600         542   0.27928772    -6.9982074     -6.7223465     -0.90146391   
      9700         544   0.32209467    -7.0170097     -6.7180472     -0.90511949   
      9800         546   0.31942714    -7.0287759     -6.7141463     -0.76921012   
      9900         548   0.28488143    -7.0253285     -6.7207532     -0.86205592   
     10000         550   0.28387065    -7.0432734     -6.7374105     -0.95089129   
Loop time of 1.7214 on 4 procs for 10000 steps with 550 atoms

Performance: 2509588.441 tau/day, 5809.233 timesteps/s, 3.195 Matom-step/s
94.8% CPU use with 4 MPI tasks x 1 OpenMP threads

MPI task timing breakdown:
Section |  min time  |  avg time  |  max time  |%varavg| %total
---------------------------------------------------------------
Pair    | 0.00057553 | 0.26626    | 0.76599    |  60.6 | 15.47
Bond    | 0.00037471 | 0.0010552  | 0.0025864  |   2.7 |  0.06
Neigh   | 0.0017583  | 0.22955    | 0.72226    |  61.3 | 13.33
Comm    | 0.1702     | 1.03       | 1.6076     |  52.0 | 59.83
Output  | 0.0007651  | 0.0033046  | 0.010192   |   6.9 |  0.19
Modify  | 0.0033769  | 0.021603   | 0.049227   |  13.1 |  1.25
Other   |            | 0.1697     |            |       |  9.86

Nlocal:          137.5 ave         300 max           2 min
Histogram: 2 0 0 0 0 0 0 1 0 1
Nghost:         1867.5 ave        2659 max         451 min
Histogram: 1 0 0 0 0 0 1 0 0 2
Neighs:           9584 ave       24038 max           0 min
Histogram: 2 0 0 0 0 1 0 0 0 1

Total # of neighbors = 38336
Ave neighs/atom = 69.701818
Ave special neighs/atom = 0.36363636
Neighbor list builds = 861
Dangerous builds = 0
Total wall time: 0:00:01
