LAMMPS (2 Sep 2026)
  using 1 OpenMP thread(s) per MPI task
# Squish four pillars with different Poisson's ratios
#   going from nearly incompressible to auxetic
#   from left to right, nu ~ 0.5, 0.25, 0, <0
#   calibration from DOI: 10.1039/d3sm01373a

units           lj
dimension       3
boundary        p p s
atom_style      bond
special_bonds   lj 0.0 1.0 1.0 coul 0.0 1.0 1.0
newton          on off
comm_modify     vel yes cutoff 2.6
lattice         fcc 1.41
Lattice spacing in x,y,z = 1.4156209 1.4156209 1.4156209
region          box block 0 20 -10 10 -1 21 units box
create_box      4 box bond/types 4 extra/bond/per/atom 20 extra/special/per/atom 50
Created orthogonal box = (0 -10 -1) to (20 10 21)
  1 by 2 by 2 MPI processor grid
mass            * 1.0

# Create initial disordered geometry somewhat near jamming

region          pillar cylinder z 10.0 0.0 7.0 0.0 20.0 units box
region          pillarw cylinder z 10.0 0.0 8.0 -1.0 21.0 units box
create_atoms    1 region pillar
Created 4348 atoms
  using lattice units in orthogonal box = (0 -10 -1.0022) to (20 10 21.0022)
  create_atoms CPU = 0.001 seconds

velocity        all create 0.1 345910 loop geom

pair_style      bpm/spring
pair_coeff      * * 1.0 1.0 1.0

fix             1 all nve
fix             wtemp all wall/region pillarw harmonic 1.0 1.0 1.0

thermo_style    custom step ke pe pxx pyy pzz
thermo          100

timestep        0.1
run             20000
Generated 0 of 6 mixed pair_coeff terms from geometric mixing rule
Neighbor list info ...
  update: every = 1 steps, delay = 0 steps, check = yes
  max neighbors/atom: 2000, page size: 100000
  master list distance cutoff = 1.3
  ghost atom cutoff = 2.6
  binsize = 0.65, bins = 31 31 34
  1 neighbor lists, perpetual/occasional/extra = 1 0 0
  (1) pair bpm/spring, perpetual
      attributes: half, newton on
      pair build: half/bin/newton
      stencil: half/bin/3d
      bin: standard
Per MPI rank memory allocation (min/avg/max) = 9.783 | 9.787 | 9.791 Mbytes
   Step         KinEng         PotEng          Pxx            Pyy            Pzz      
         0   0.1499655      0              0.055430061    0.055308111    0.053729104  
       100   0.0047014171   0.0040647412   0.019925302    0.020725263    0.020275596  
       200   0.0014611276   0.0013801402   0.011985929    0.011862332    0.012286969  
       300   0.00068590066  0.00067237222  0.0081830043   0.0082027217   0.0083209172 
       400   0.00036834072  0.00039963194  0.0063203146   0.0063564423   0.006175383  
       500   0.00023804256  0.00024880407  0.0049366405   0.0048919936   0.0049729636 
       600   0.00015415358  0.0001735039   0.0040535427   0.0040599578   0.004185661  
       700   0.00010805751  0.00012353324  0.0034172673   0.0034359792   0.0034816927 
       800   7.6804195e-05  9.4347815e-05  0.0029714763   0.0030083742   0.0030116933 
       900   5.7885084e-05  7.3501543e-05  0.002613496    0.002594557    0.0026370278 
      1000   4.6591449e-05  5.6777799e-05  0.0022901051   0.0022905531   0.0023251567 
      1100   3.6979184e-05  4.6178853e-05  0.0020634918   0.0020423145   0.0021047811 
      1200   3.0553915e-05  3.6725064e-05  0.0018514474   0.0018337801   0.0018619291 
      1300   2.5200641e-05  3.0667513e-05  0.001644889    0.0016517654   0.0016814384 
      1400   2.0774472e-05  2.6407289e-05  0.0015355767   0.0015457399   0.0015623058 
      1500   1.8089517e-05  2.2181712e-05  0.0014006301   0.0014065276   0.0014349552 
      1600   1.5936205e-05  1.8773494e-05  0.0012983647   0.0012974234   0.0012833513 
      1700   1.3908458e-05  1.5979224e-05  0.0011720974   0.001183336    0.0011872375 
      1800   1.1804428e-05  1.4275435e-05  0.0011243619   0.0011165671   0.0010963584 
      1900   1.008301e-05   1.2833294e-05  0.0010450599   0.0010473166   0.0010429265 
      2000   8.7416564e-06  1.1484071e-05  0.0010017374   0.0010101779   0.00099885747
      2100   8.0161087e-06  9.9832993e-06  0.00094837147  0.00094315397  0.00092698216
      2200   7.3257166e-06  8.7524749e-06  0.00087068875  0.00087340414  0.00087360278
      2300   6.5592176e-06  7.9736685e-06  0.00082967421  0.00084765233  0.00083214154
      2400   5.7350658e-06  7.3150099e-06  0.00080419188  0.00079123898  0.00077871153
      2500   5.2037029e-06  6.627516e-06   0.00076242342  0.0007575168   0.00075204963
      2600   4.6660082e-06  6.0547439e-06  0.00073353115  0.00072808821  0.00071722301
      2700   4.3989211e-06  5.4165954e-06  0.00069366677  0.00068619605  0.00067797569
      2800   4.0406578e-06  4.9309041e-06  0.0006501816   0.00066110308  0.00064112579
      2900   3.6840739e-06  4.5806726e-06  0.00063650196  0.00062799776  0.00060772547
      3000   3.460376e-06   4.1492931e-06  0.00059560305  0.00059722057  0.0005917033 
      3100   3.2462087e-06  3.7871353e-06  0.00056680607  0.00057450462  0.00055829138
      3200   3.0194788e-06  3.5160829e-06  0.00054792795  0.00056007693  0.00053711272
      3300   2.7701206e-06  3.3107079e-06  0.00053349069  0.00053211552  0.00052369432
      3400   2.582126e-06   3.0704257e-06  0.00051117715  0.00051256323  0.00050893647
      3500   2.4153668e-06  2.8676976e-06  0.00048836969  0.00049113204  0.00049037146
      3600   2.253772e-06   2.6850606e-06  0.00047775725  0.0004808365   0.00047138689
      3700   2.1208604e-06  2.5095115e-06  0.00046219605  0.00046278634  0.00045696985
      3800   2.0122049e-06  2.325546e-06   0.0004415157   0.00044403018  0.00044124786
      3900   1.899339e-06   2.1934212e-06  0.00043078442  0.00042779247  0.00042669236
      4000   1.7961469e-06  2.0531319e-06  0.00041891588  0.00040994864  0.00041073098
      4100   1.7145807e-06  1.9371753e-06  0.00040741185  0.00040082264  0.00039901019
      4200   1.6393435e-06  1.8179005e-06  0.00039201815  0.00039059501  0.00039374641
      4300   1.5378392e-06  1.7367633e-06  0.00038320087  0.00038267075  0.00038114657
      4400   1.4398872e-06  1.6704857e-06  0.00037727558  0.00037971118  0.00037622879
      4500   1.3746979e-06  1.5841558e-06  0.00036605656  0.00036558926  0.00036018233
      4600   1.3177347e-06  1.4925051e-06  0.00035714021  0.00035237138  0.00035266841
      4700   1.2490562e-06  1.4290462e-06  0.00035023206  0.00034897757  0.00033761495
      4800   1.2073676e-06  1.3562256e-06  0.0003407934   0.00034057928  0.00033637183
      4900   1.141919e-06   1.2907816e-06  0.00033535975  0.00033068746  0.00032505302
      5000   1.092436e-06   1.2492516e-06  0.00032914017  0.00032765314  0.00032173766
      5100   1.0435542e-06  1.1935423e-06  0.00032110832  0.000321534    0.00031750859
      5200   1.0059148e-06  1.1534917e-06  0.00031924655  0.00031013857  0.00031183876
      5300   9.7676493e-07  1.098305e-06   0.00031348013  0.00030442993  0.00030229036
      5400   9.4397184e-07  1.0547612e-06  0.00030185485  0.00030068378  0.00029649201
      5500   9.2079521e-07  1.0066234e-06  0.00029757396  0.00029862814  0.00029033366
      5600   8.8315495e-07  9.7806636e-07  0.00029221677  0.00028929819  0.0002883547 
      5700   8.6037236e-07  9.3452577e-07  0.00028640448  0.00028144697  0.00028145707
      5800   8.4818178e-07  8.9443404e-07  0.00028251305  0.00027673438  0.00027104559
      5900   8.286725e-07   8.5179608e-07  0.00027105186  0.00027234231  0.00027016556
      6000   8.01541e-07    8.2707211e-07  0.00026672676  0.00026872386  0.00026284165
      6100   7.8567384e-07  7.9728014e-07  0.00026132561  0.00025821604  0.0002604801 
      6200   7.5901108e-07  7.7864508e-07  0.00026312315  0.00026081193  0.00025441522
      6300   7.4588127e-07  7.4426524e-07  0.00025270751  0.00025597611  0.00024723938
      6400   7.2509195e-07  7.2187765e-07  0.00025271066  0.00024757387  0.00024599907
      6500   6.9933979e-07  7.0748472e-07  0.00024997678  0.00024594574  0.00024286353
      6600   6.8093292e-07  6.8988453e-07  0.00024907278  0.00024012874  0.00024199237
      6700   6.6861513e-07  6.6473522e-07  0.00024487084  0.00023995137  0.00023541564
      6800   6.4806686e-07  6.4981385e-07  0.00024017063  0.000236732    0.0002343743 
      6900   6.3962769e-07  6.3060878e-07  0.00023958929  0.00023256953  0.0002320767 
      7000   6.2402757e-07  6.1165269e-07  0.00023540822  0.00022949855  0.00023028325
      7100   6.0897245e-07  5.9792244e-07  0.00023222402  0.00022706528  0.00022936329
      7200   5.9944691e-07  5.7986169e-07  0.00022611704  0.00022395226  0.00022346478
      7300   5.9098415e-07  5.6029674e-07  0.00022545119  0.00022370572  0.00022001754
      7400   5.7976974e-07  5.5096543e-07  0.00022388878  0.00021917536  0.00021850002
      7500   5.7419246e-07  5.2670735e-07  0.00021857521  0.00021321801  0.00021622741
      7600   5.559979e-07   5.2558446e-07  0.00021998133  0.00021407615  0.00021102737
      7700   5.4671694e-07  5.1271007e-07  0.0002163743   0.00021044165  0.00021222797
      7800   5.3827201e-07  4.9981733e-07  0.00021480188  0.00020893996  0.00020891974
      7900   5.2773137e-07  4.9086225e-07  0.00021241309  0.00020505856  0.000209147  
      8000   5.2072643e-07  4.7657562e-07  0.00020965129  0.00020798908  0.00020242254
      8100   5.1679891e-07  4.6675541e-07  0.00021107953  0.00020021947  0.00020374257
      8200   5.0714047e-07  4.5704679e-07  0.00020587317  0.00019867216  0.00020113388
      8300   5.014631e-07   4.4481457e-07  0.00020240231  0.00020023646  0.00019691686
      8400   4.9420999e-07  4.3797899e-07  0.00020412611  0.00019663843  0.0001975982 
      8500   4.8746487e-07  4.3171335e-07  0.00020246086  0.00019731852  0.00019541324
      8600   4.8096973e-07  4.1888864e-07  0.000198207    0.00019423634  0.00019504357
      8700   4.7316527e-07  4.1428989e-07  0.00020046347  0.00019151984  0.00019192597
      8800   4.6999182e-07  4.0677521e-07  0.00019532624  0.00019183338  0.00019194817
      8900   4.6396981e-07  3.9826368e-07  0.00019346239  0.00019073865  0.00018876875
      9000   4.5560044e-07  3.9457365e-07  0.00019233867  0.00018861238  0.00019036414
      9100   4.4932818e-07  3.8952474e-07  0.00019160567  0.00018761238  0.00018914354
      9200   4.4384978e-07  3.8276861e-07  0.00019131641  0.00018801521  0.00018656148
      9300   4.4089706e-07  3.739673e-07   0.00018746693  0.0001885204   0.00018585381
      9400   4.3532658e-07  3.6957371e-07  0.00018643324  0.00018595274  0.0001841092 
      9500   4.3102656e-07  3.6407247e-07  0.00018611702  0.0001828331   0.00018476885
      9600   4.287146e-07   3.5614295e-07  0.00018425934  0.00018232211  0.00018306184
      9700   4.246416e-07   3.5129225e-07  0.00018336234  0.00018109077  0.00018159601
      9800   4.2308457e-07  3.4610549e-07  0.00018188819  0.00017941294  0.00017810623
      9900   4.1739758e-07  3.4133841e-07  0.00018201732  0.00017782221  0.00017726895
     10000   4.1593969e-07  3.3496346e-07  0.00017864263  0.00017835823  0.00017955227
     10100   4.1180418e-07  3.317216e-07   0.00017950224  0.0001757734   0.00017674408
     10200   4.0856822e-07  3.2669403e-07  0.00017835296  0.00017556845  0.00017788577
     10300   4.0601125e-07  3.2200342e-07  0.00017878976  0.00017390826  0.0001753486 
     10400   4.0391299e-07  3.1725408e-07  0.00017793046  0.00017250655  0.00017358754
     10500   4.0074409e-07  3.1440455e-07  0.00017569785  0.00017276917  0.00017364833
     10600   3.9603631e-07  3.1084898e-07  0.00017370914  0.00017284498  0.00017064759
     10700   3.9369982e-07  3.0654363e-07  0.00017404787  0.00017149287  0.0001717086 
     10800   3.9035793e-07  3.0483504e-07  0.00017436006  0.00017424441  0.00016961353
     10900   3.8988032e-07  2.9897212e-07  0.00017506863  0.00017101614  0.00017009876
     11000   3.8671133e-07  2.9638529e-07  0.00017151168  0.00016811219  0.00016921421
     11100   3.835743e-07   2.9389214e-07  0.00017142904  0.00016924523  0.00016731717
     11200   3.8190631e-07  2.888688e-07   0.0001701613   0.00016847343  0.00016714749
     11300   3.7823955e-07  2.8866157e-07  0.0001701258   0.00016789406  0.00016644367
     11400   3.7567133e-07  2.8567201e-07  0.00017040385  0.00016825682  0.00016654089
     11500   3.7319558e-07  2.8201863e-07  0.00016798397  0.00016827152  0.00016592895
     11600   3.7298717e-07  2.7934922e-07  0.00016940178  0.00016596999  0.00016567024
     11700   3.6987454e-07  2.7757633e-07  0.00016855509  0.00016433268  0.00016583647
     11800   3.6785276e-07  2.7492858e-07  0.00016732368  0.00016484746  0.00016424315
     11900   3.661042e-07   2.7293293e-07  0.00016779519  0.00016492573  0.00016354906
     12000   3.6376779e-07  2.7169611e-07  0.00016958238  0.00016523113  0.00016429261
     12100   3.6178419e-07  2.6980341e-07  0.00016837102  0.00016548624  0.0001634564 
     12200   3.6049796e-07  2.6720986e-07  0.00016612243  0.00016437177  0.00016352757
     12300   3.586211e-07   2.6395462e-07  0.00016564802  0.00016284483  0.00016200754
     12400   3.5639734e-07  2.6319818e-07  0.00016500956  0.00016248719  0.00016156022
     12500   3.551796e-07   2.6005575e-07  0.0001657384   0.00016319947  0.00015879738
     12600   3.5511067e-07  2.574517e-07   0.00016491356  0.00016145241  0.00015920375
     12700   3.5355941e-07  2.5545412e-07  0.00016349177  0.00016054855  0.00015924248
     12800   3.5195856e-07  2.5430898e-07  0.00016367586  0.00016105245  0.00015960709
     12900   3.5032113e-07  2.5274224e-07  0.00016250149  0.00016129112  0.00015816674
     13000   3.49636e-07    2.509436e-07   0.00016300368  0.00016011488  0.00015887127
     13100   3.4800031e-07  2.4926366e-07  0.00016250914  0.00016056494  0.00015872227
     13200   3.4730537e-07  2.4674379e-07  0.00016275065  0.00016067818  0.0001561845 
     13300   3.4577084e-07  2.4570759e-07  0.00016183194  0.0001592854   0.00015660967
     13400   3.4436286e-07  2.4496917e-07  0.00016170544  0.00015924772  0.00015720041
     13500   3.4292997e-07  2.4348248e-07  0.00016221504  0.00015849116  0.00015801791
     13600   3.4188594e-07  2.4323554e-07  0.00016192175  0.0001586897   0.00015620192
     13700   3.405544e-07   2.4095891e-07  0.00016022568  0.00015834368  0.00015559383
     13800   3.4040944e-07  2.3917754e-07  0.00016078461  0.00015769572  0.00015542244
     13900   3.3927925e-07  2.3817742e-07  0.00015985701  0.00015925002  0.00015642344
     14000   3.3815834e-07  2.3838112e-07  0.00016037402  0.00015802026  0.0001553862 
     14100   3.3710109e-07  2.3665564e-07  0.00016027003  0.00015757351  0.00015395619
     14200   3.3592704e-07  2.3613809e-07  0.00015895695  0.00015739598  0.00015568331
     14300   3.3514047e-07  2.3502057e-07  0.00015968984  0.00015647656  0.00015472328
     14400   3.3422543e-07  2.3343399e-07  0.00016033457  0.00015685852  0.00015396689
     14500   3.335175e-07   2.3245361e-07  0.0001582719   0.00015589324  0.00015339433
     14600   3.3269311e-07  2.3155974e-07  0.00015964348  0.00015534828  0.00015518376
     14700   3.3228476e-07  2.3005977e-07  0.00016043049  0.00015529326  0.00015443382
     14800   3.3147836e-07  2.2958999e-07  0.00015791601  0.00015478454  0.00015469532
     14900   3.3070924e-07  2.289978e-07   0.00015854959  0.00015530097  0.0001534363 
     15000   3.2992347e-07  2.2791842e-07  0.0001595796   0.00015438952  0.00015418007
     15100   3.2944966e-07  2.2686205e-07  0.00015873109  0.00015445244  0.00015320246
     15200   3.2910868e-07  2.259677e-07   0.0001584795   0.00015465507  0.00015257762
     15300   3.2833977e-07  2.2573988e-07  0.00015892224  0.00015334084  0.00015218243
     15400   3.2808735e-07  2.2362518e-07  0.00015829794  0.00015357479  0.00015203848
     15500   3.2764372e-07  2.2368945e-07  0.00015845597  0.00015412757  0.00015203085
     15600   3.2655823e-07  2.2331467e-07  0.00015644387  0.00015496781  0.00015234873
     15700   3.2585933e-07  2.2224661e-07  0.00015730424  0.00015299311  0.0001524196 
     15800   3.2587664e-07  2.2186363e-07  0.00015783632  0.0001531401   0.0001525752 
     15900   3.2535288e-07  2.2058413e-07  0.00015680238  0.0001534953   0.00015217728
     16000   3.2461476e-07  2.2043886e-07  0.00015631158  0.00015349848  0.00015265047
     16100   3.2388075e-07  2.2014209e-07  0.00015753564  0.00015376933  0.00015126204
     16200   3.2368699e-07  2.1883519e-07  0.0001568343   0.00015250166  0.00015185169
     16300   3.2310069e-07  2.1928575e-07  0.00015695702  0.00015393632  0.00015235983
     16400   3.2303933e-07  2.1785258e-07  0.00015737182  0.000152853    0.00015094222
     16500   3.2248854e-07  2.169914e-07   0.00015681866  0.0001526739   0.00015150823
     16600   3.2222437e-07  2.167415e-07   0.00015666441  0.00015350401  0.00015093588
     16700   3.2174304e-07  2.1625731e-07  0.00015676774  0.00015341897  0.00015085174
     16800   3.2116563e-07  2.1579244e-07  0.00015665073  0.00015307034  0.00015032107
     16900   3.2103877e-07  2.1485928e-07  0.00015530148  0.0001530343   0.00015004122
     17000   3.2053377e-07  2.1505939e-07  0.00015668142  0.00015317863  0.00015052348
     17100   3.2009137e-07  2.1436196e-07  0.00015651637  0.00015262277  0.00014982432
     17200   3.1978412e-07  2.1375427e-07  0.00015596866  0.00015294488  0.00014923039
     17300   3.1925766e-07  2.1352841e-07  0.00015677784  0.00015225326  0.00015032679
     17400   3.1891805e-07  2.1307701e-07  0.00015624291  0.00015232725  0.00014899782
     17500   3.1871803e-07  2.1247663e-07  0.00015702577  0.00015232776  0.00015001278
     17600   3.1819145e-07  2.1193571e-07  0.00015579971  0.00015188829  0.00014976478
     17700   3.1805218e-07  2.1185317e-07  0.00015661015  0.00015211876  0.00014998855
     17800   3.1772357e-07  2.1150869e-07  0.00015575751  0.00015261514  0.00014971431
     17900   3.1735334e-07  2.1142846e-07  0.00015601046  0.00015208559  0.00015066398
     18000   3.1708186e-07  2.1053243e-07  0.0001561305   0.00015203726  0.0001496914 
     18100   3.1693248e-07  2.1042429e-07  0.00015541722  0.00015201818  0.00015060847
     18200   3.165916e-07   2.0994455e-07  0.00015607593  0.00015212315  0.00015033983
     18300   3.162941e-07   2.0953654e-07  0.00015516242  0.00015186726  0.00014973309
     18400   3.1619544e-07  2.0938762e-07  0.00015584129  0.00015131175  0.0001501115 
     18500   3.1585245e-07  2.0918315e-07  0.00015511976  0.00015162095  0.00014975727
     18600   3.1555795e-07  2.0902874e-07  0.00015511599  0.00015132712  0.00015017586
     18700   3.1521333e-07  2.0871967e-07  0.00015440159  0.0001516322   0.00014939089
     18800   3.1511631e-07  2.0823872e-07  0.00015538077  0.00015136974  0.00014992654
     18900   3.1484806e-07  2.0783621e-07  0.00015472241  0.00015087973  0.00014907994
     19000   3.1474239e-07  2.0779159e-07  0.00015539494  0.00015154827  0.00014992889
     19100   3.1450482e-07  2.0719209e-07  0.00015496744  0.00015080665  0.0001493363 
     19200   3.143609e-07   2.0689185e-07  0.00015491117  0.00015137417  0.00014924129
     19300   3.1434648e-07  2.0693543e-07  0.00015455188  0.00015148046  0.00014984004
     19400   3.1432528e-07  2.0643578e-07  0.00015435844  0.00015058481  0.00014918679
     19500   3.14299e-07    2.0609614e-07  0.00015385179  0.00015124997  0.0001495037 
     19600   3.1418963e-07  2.0582908e-07  0.00015413481  0.00015170447  0.00014916667
     19700   3.1416003e-07  2.0526374e-07  0.00015355362  0.00015109023  0.00014959394
     19800   3.1431598e-07  2.0445245e-07  0.00015423965  0.00015011552  0.000148781  
     19900   3.1442232e-07  2.044442e-07   0.00015421972  0.00015107441  0.0001483271 
     20000   3.1450146e-07  2.0384605e-07  0.00015329256  0.00015033201  0.0001487256 
Loop time of 1.56058 on 4 procs for 20000 steps with 4348 atoms

Performance: 110727900.196 tau/day, 12815.729 timesteps/s, 55.723 Matom-step/s
98.6% CPU use with 4 MPI tasks x 1 OpenMP threads

MPI task timing breakdown:
Section |  min time  |  avg time  |  max time  |%varavg| %total
---------------------------------------------------------------
Pair    | 0.48201    | 0.5104     | 0.53301    |   2.6 | 32.71
Bond    | 0.00051225 | 0.00051473 | 0.00051856 |   0.0 |  0.03
Neigh   | 0.036981   | 0.039024   | 0.041708   |   0.9 |  2.50
Comm    | 0.30105    | 0.34716    | 0.39907    |   5.9 | 22.25
Output  | 0.002215   | 0.0025162  | 0.0030863  |   0.7 |  0.16
Modify  | 0.59646    | 0.60116    | 0.60393    |   0.4 | 38.52
Other   |            | 0.0598     |            |       |  3.83

Nlocal:           1087 ave        1091 max        1080 min
Histogram: 1 0 0 0 0 0 0 1 1 1
Nghost:            869 ave         878 max         864 min
Histogram: 2 0 0 0 1 0 0 0 0 1
Neighs:         5825.5 ave        6090 max        5507 min
Histogram: 1 0 0 0 0 1 1 0 0 1

Total # of neighbors = 23302
Ave neighs/atom = 5.3592456
Ave special neighs/atom = 0
Neighbor list builds = 119
Dangerous builds = 0
unfix           wtemp

# Replicate cylinder and add bonds

replicate       4 1 1
Replication is creating a 4x1x1 = 4 times larger system...
  orthogonal box = (0 -10 -0.0029853009) to (80 10 20.002995)
  4 by 1 by 1 MPI processor grid
  17392 atoms
Finding 1-2 1-3 1-4 neighbors ...
  special bond factors lj:    0        1        1       
  special bond factors coul:  0        1        1       
     0 = max # of 1-2 neighbors
   101 = max # of special neighbors
  special bonds CPU = 0.000 seconds
  replicate CPU = 0.002 seconds

region          r1 block 0.0  20.0 EDGE EDGE EDGE EDGE side in units box
region          r2 block 20.0 40.0 EDGE EDGE EDGE EDGE side in units box
region          r3 block 40.0 60.0 EDGE EDGE EDGE EDGE side in units box
region          r4 block 60.0 80.0 EDGE EDGE EDGE EDGE side in units box

group           p1 region r1
4348 atoms in group p1
group           p2 region r2
4348 atoms in group p2
group           p3 region r3
4348 atoms in group p3
group           p4 region r4
4348 atoms in group p4

set             group p2 type 2
Setting atom values ...
  4348 settings made for type
set             group p3 type 3
Setting atom values ...
  4348 settings made for type
set             group p4 type 4
Setting atom values ...
  4348 settings made for type

velocity        all set 0.0 0.0 0.0
neighbor        1.0 bin

create_bonds    many p1 p1 1 0.0 1.5
Generated 0 of 6 mixed pair_coeff terms from geometric mixing rule
Neighbor list info ...
  update: every = 1 steps, delay = 0 steps, check = yes
  max neighbors/atom: 2000, page size: 100000
  master list distance cutoff = 2
  ghost atom cutoff = 2.6
  binsize = 1, bins = 80 20 21
  2 neighbor lists, perpetual/occasional/extra = 1 1 0
  (1) command create_bonds, occasional
      attributes: full, newton on
      pair build: full/bin
      stencil: full/bin/3d
      bin: standard
  (2) pair bpm/spring, perpetual
      attributes: half, newton on
      pair build: half/bin/newton
      stencil: half/bin/3d
      bin: standard
Added 29333 bonds, new total = 29333
Finding 1-2 1-3 1-4 neighbors ...
  special bond factors lj:    0        1        1       
  special bond factors coul:  0        1        1       
    19 = max # of 1-2 neighbors
   101 = max # of special neighbors
  special bonds CPU = 0.002 seconds
create_bonds    many p2 p2 2 0.0 1.5
Generated 0 of 6 mixed pair_coeff terms from geometric mixing rule
WARNING: Bonds are defined but no bond style is set (src/force.cpp:165)
WARNING: Likewise 1-2 special neighbor interactions != 1.0 (src/force.cpp:167)
Neighbor list info ...
  update: every = 1 steps, delay = 0 steps, check = yes
  max neighbors/atom: 2000, page size: 100000
  master list distance cutoff = 2
  ghost atom cutoff = 2.6
  binsize = 1, bins = 80 20 21
  2 neighbor lists, perpetual/occasional/extra = 1 1 0
  (1) command create_bonds, occasional
      attributes: full, newton on
      pair build: full/bin
      stencil: full/bin/3d
      bin: standard
  (2) pair bpm/spring, perpetual
      attributes: half, newton on
      pair build: half/bin/newton
      stencil: half/bin/3d
      bin: standard
Added 29333 bonds, new total = 58666
Finding 1-2 1-3 1-4 neighbors ...
  special bond factors lj:    0        1        1       
  special bond factors coul:  0        1        1       
    19 = max # of 1-2 neighbors
   101 = max # of special neighbors
  special bonds CPU = 0.001 seconds
create_bonds    many p3 p3 3 0.0 1.5
Generated 0 of 6 mixed pair_coeff terms from geometric mixing rule
WARNING: Bonds are defined but no bond style is set (src/force.cpp:165)
WARNING: Likewise 1-2 special neighbor interactions != 1.0 (src/force.cpp:167)
Neighbor list info ...
  update: every = 1 steps, delay = 0 steps, check = yes
  max neighbors/atom: 2000, page size: 100000
  master list distance cutoff = 2
  ghost atom cutoff = 2.6
  binsize = 1, bins = 80 20 21
  2 neighbor lists, perpetual/occasional/extra = 1 1 0
  (1) command create_bonds, occasional
      attributes: full, newton on
      pair build: full/bin
      stencil: full/bin/3d
      bin: standard
  (2) pair bpm/spring, perpetual
      attributes: half, newton on
      pair build: half/bin/newton
      stencil: half/bin/3d
      bin: standard
Added 29333 bonds, new total = 87999
Finding 1-2 1-3 1-4 neighbors ...
  special bond factors lj:    0        1        1       
  special bond factors coul:  0        1        1       
    19 = max # of 1-2 neighbors
   101 = max # of special neighbors
  special bonds CPU = 0.001 seconds
create_bonds    many p4 p4 4 0.0 1.5
Generated 0 of 6 mixed pair_coeff terms from geometric mixing rule
WARNING: Bonds are defined but no bond style is set (src/force.cpp:165)
WARNING: Likewise 1-2 special neighbor interactions != 1.0 (src/force.cpp:167)
Neighbor list info ...
  update: every = 1 steps, delay = 0 steps, check = yes
  max neighbors/atom: 2000, page size: 100000
  master list distance cutoff = 2
  ghost atom cutoff = 2.6
  binsize = 1, bins = 80 20 21
  2 neighbor lists, perpetual/occasional/extra = 1 1 0
  (1) command create_bonds, occasional
      attributes: full, newton on
      pair build: full/bin
      stencil: full/bin/3d
      bin: standard
  (2) pair bpm/spring, perpetual
      attributes: half, newton on
      pair build: half/bin/newton
      stencil: half/bin/3d
      bin: standard
Added 29333 bonds, new total = 117332
Finding 1-2 1-3 1-4 neighbors ...
  special bond factors lj:    0        1        1       
  special bond factors coul:  0        1        1       
    19 = max # of 1-2 neighbors
   101 = max # of special neighbors
  special bonds CPU = 0.001 seconds

neighbor        0.3 bin
special_bonds   lj 0.0 1.0 1.0 coul 1.0 1.0 1.0

bond_style      bpm/spring break no smooth no volume/factor yes
bond_coeff      1 1.0 0 1.0 -0.8
bond_coeff      2 1.0 0 1.0 0.0
bond_coeff      3 1.0 0 1.0 2.0
bond_coeff      4 1.0 0 1.0 10.0

# squish

region          b block EDGE EDGE EDGE EDGE -1.0 2.0 units box
region          t block EDGE EDGE EDGE EDGE 18.0 21.0 units box
group           bot region b
2024 atoms in group bot
group           top region t
2032 atoms in group top

velocity        top set 0.0 0.0 -0.0025
fix             2 bot setforce 0.0 0.0 0.0
fix             3 top setforce 0.0 0.0 0.0

compute         zmax all reduce max z

thermo_style    custom step ke pe pxx pyy pzz c_zmax
#dump            1 all custom 100 atomDump id type x y z

run             10000

CITE-CITE-CITE-CITE-CITE-CITE-CITE-CITE-CITE-CITE-CITE-CITE-CITE

Your simulation uses code contributions which should be cited:

- BPM bond style: https://doi.org/10.1039/D3SM01373A

@Article{Clemmer2024,
 author =  {Clemmer, Joel T. and Monti, Joseph M. and Lechman, Jeremy B.},
 title =   {A soft departure from jamming: the compaction of deformable
            granular matter under high pressures},
 journal = {Soft Matter},
 year =    2024,
 volume =  20,
 number =  8,
 pages =   {1702--1718}
}

CITE-CITE-CITE-CITE-CITE-CITE-CITE-CITE-CITE-CITE-CITE-CITE-CITE

Generated 0 of 6 mixed pair_coeff terms from geometric mixing rule
Neighbor list info ...
  update: every = 1 steps, delay = 0 steps, check = yes
  max neighbors/atom: 2000, page size: 100000
  master list distance cutoff = 1.3
  ghost atom cutoff = 2.6
  binsize = 0.65, bins = 124 31 31
  1 neighbor lists, perpetual/occasional/extra = 1 0 0
  (1) pair bpm/spring, perpetual
      attributes: half, newton on
      pair build: half/bin/newton
      stencil: half/bin/3d
      bin: standard
Per MPI rank memory allocation (min/avg/max) = 16.85 | 16.86 | 16.86 Mbytes
   Step         KinEng         PotEng          Pxx            Pyy            Pzz           c_zmax    
     20000   7.3167483e-07  0              5.6347138e-05  5.6689399e-05  0.0001685299   20.000806    
     20100   3.1240626e-06  4.2205214e-06 -0.00014806439 -0.00013796159  0.0029617201   19.965415    
     20200   2.54557e-06    1.518596e-05  -0.00028637536 -0.00026947358  0.0057127416   19.930025    
     20300   2.5521679e-06  3.3940222e-05 -0.00043449969 -0.00040812343  0.0084512342   19.894634    
     20400   2.4240911e-06  6.0407468e-05 -0.00057055963 -0.00053514553  0.011175762    19.859244    
     20500   2.2289838e-06  9.437173e-05  -0.00072488572 -0.00068109245  0.013986702    19.823853    
     20600   2.3165739e-06  0.00013591795 -0.00086682185 -0.00081404163  0.016701207    19.788463    
     20700   2.4756194e-06  0.00018492018 -0.001010584   -0.00094944086  0.019401256    19.753072    
     20800   2.3520847e-06  0.00024142476 -0.0011528218  -0.0010825426   0.022086179    19.717682    
     20900   2.3303028e-06  0.00030537374 -0.0013039038  -0.0012241107   0.024945858    19.682291    
     21000   2.3775066e-06  0.00037674559 -0.0014452774  -0.001356534    0.02762279     19.646901    
     21100   2.3181004e-06  0.00045551914 -0.001585378   -0.0014877849   0.030285281    19.61151     
     21200   2.3903798e-06  0.00054166647 -0.0017246391  -0.001617976    0.032933347    19.57612     
     21300   2.3567557e-06  0.00063516354 -0.0018771505  -0.0017604747   0.03583984     19.540729    
     21400   2.3475189e-06  0.00073598549 -0.0020153202  -0.0018894331   0.03847902     19.505339    
     21500   2.355573e-06   0.000844107   -0.0021523872  -0.0020173058   0.041103684    19.469948    
     21600   2.3567409e-06  0.0009595024  -0.0022884345  -0.0021441081   0.043713799    19.434557    
     21700   2.3521345e-06  0.0010821456  -0.0024421312  -0.0022872836   0.046667372    19.399167    
     21800   2.3609641e-06  0.0012120118  -0.0025770734  -0.0024128017   0.049268274    19.363776    
     21900   2.3516592e-06  0.0013490768  -0.002710922   -0.0025371617   0.051854453    19.328386    
     22000   2.3523894e-06  0.0014933137  -0.0028436645  -0.0026604002   0.054425938    19.292995    
     22100   2.3557921e-06  0.0016446978  -0.0029753269  -0.0027825061   0.056982711    19.257605    
     22200   2.3528773e-06  0.0018032031  -0.0031301027  -0.0029260998   0.059988636    19.222214    
     22300   2.354021e-06   0.0019688038  -0.0032605855  -0.0030468515   0.062535648    19.186824    
     22400   2.3536709e-06  0.0021414736  -0.0033899589  -0.0031664557   0.065067831    19.151433    
     22500   2.3521651e-06  0.0023211868  -0.0035182146  -0.0032848888   0.067585174    19.116043    
     22600   2.352558e-06   0.0025079167  -0.0036739856  -0.0034288795   0.070638147    19.080652    
     22700   2.3527705e-06  0.0027016371  -0.0038009983  -0.0035458964   0.073145318    19.045262    
     22800   2.3517184e-06  0.0029023221  -0.0039268791  -0.0036617285   0.07563751     19.009871    
     22900   2.351954e-06   0.003109945   -0.0040516229  -0.0037763752   0.078114717    18.974481    
     23000   2.3514613e-06  0.0033244794  -0.0042082827  -0.0039206255   0.081214804    18.93909     
     23100   2.3510617e-06  0.0035458987  -0.0043317162  -0.0040337768   0.083681393    18.9037      
     23200   2.3510443e-06  0.0037741762  -0.0044539974  -0.0041457229   0.086132853    18.868309    
     23300   2.3507519e-06  0.0040092848  -0.0045751234  -0.0042564599   0.088569175    18.832919    
     23400   2.3503438e-06  0.0042511976  -0.0047325523  -0.0044008188   0.091716416    18.797528    
     23500   2.3501533e-06  0.0044998873  -0.0048523016  -0.0045099835   0.094141656    18.762138    
     23600   2.3498069e-06  0.0047553266  -0.0049708743  -0.0046179153   0.096551618    18.726747    
     23700   2.3494998e-06  0.0050174883  -0.005088268   -0.0047246099   0.098946297    18.691357    
     23800   2.3492752e-06  0.0052863449  -0.0052044793  -0.0048300641   0.10132568     18.655966    
     23900   2.3489629e-06  0.0055618688  -0.0053622933  -0.0049739637   0.10452381     18.620575    
     24000   2.3486623e-06  0.0058440324  -0.0054770457  -0.005077752    0.10689148     18.585185    
     24100   2.3483992e-06  0.0061328079  -0.0055905965  -0.0051802767   0.1092437      18.549794    
     24200   2.3481139e-06  0.0064281673  -0.0057029424  -0.0052815349   0.11158048     18.514404    
     24300   2.3478329e-06  0.0067300824  -0.0058612261  -0.0054251607   0.1148254      18.479013    
     24400   2.3475581e-06  0.0070385251  -0.0059720448  -0.005524673    0.11714994     18.443623    
     24500   2.347256e-06   0.007353467   -0.0060816388  -0.0056228955   0.11945886     18.408232    
     24600   2.3469587e-06  0.0076748796  -0.0061900052  -0.0057198235   0.12175217     18.372842    
     24700   2.3466666e-06  0.0080027343  -0.0063486213  -0.0058629953   0.12504382     18.337451    
     24800   2.3463735e-06  0.0083370024  -0.0064553886  -0.0059580937   0.12732436     18.302061    
     24900   2.3460835e-06  0.0086776548  -0.0065609089  -0.0060518753   0.12958911     18.26667     
     25000   2.3457923e-06  0.0090246628  -0.006665179   -0.0061443353   0.13183807     18.23128     
     25100   2.3454962e-06  0.0093779971  -0.0068239831  -0.0062868658   0.13517632     18.195889    
     25200   2.3452046e-06  0.0097376283  -0.0069265817  -0.0063774105   0.13741194     18.160499    
     25300   2.3449143e-06  0.010103527   -0.0070279101  -0.0064666102   0.1396316      18.125108    
     25400   2.3446208e-06  0.010475664   -0.0071279653  -0.0065544606   0.14183528     18.089718    
     25500   2.3443263e-06  0.010854009   -0.0072267441  -0.0066409575   0.14402298     18.054327    
     25600   2.3440282e-06  0.011238532   -0.0073851156  -0.0067819978   0.14740971     18.018937    
     25700   2.3437262e-06  0.011629203   -0.0074821316  -0.0068664706   0.14958331     17.983546    
     25800   2.343426e-06   0.012025992   -0.007577851   -0.0069495654   0.15174075     17.948156    
     25900   2.3431277e-06  0.012428869   -0.0076722705  -0.0070312781   0.153882       17.912765    
     26000   2.3428281e-06  0.012837802   -0.0078304671  -0.0071712048   0.15731451     17.877374    
     26100   2.3425278e-06  0.013252762   -0.0079230475  -0.0072508015   0.15944103     17.841984    
     26200   2.3422274e-06  0.013673718   -0.008014308   -0.0073289912   0.16155119     17.806593    
     26300   2.3419258e-06  0.014100637   -0.0081042453  -0.0074057692   0.16364496     17.771203    
     26400   2.3416242e-06  0.01453349    -0.0082620991  -0.0075443585   0.16712295     17.735812    
     26500   2.3413233e-06  0.014972245   -0.0083501188  -0.0076189249   0.16920133     17.700422    
     26600   2.3410214e-06  0.015416869   -0.0084367949  -0.0076920544   0.17126312     17.665031    
     26700   2.3407174e-06  0.015867332   -0.0085221245  -0.0077637423   0.17330833     17.629641    
     26800   2.3404123e-06  0.016323601   -0.0086794594  -0.0079007576   0.17683141     17.59425     
     26900   2.3401072e-06  0.016785645   -0.0087627907  -0.0079701346   0.17886051     17.55886     
     27000   2.3398021e-06  0.01725343    -0.0088447547  -0.0080380437   0.1808728      17.523469    
     27100   2.3394973e-06  0.017726924   -0.0089253482  -0.0081044801   0.18286828     17.488079    
     27200   2.3391929e-06  0.018206095   -0.0090045684  -0.0081694393   0.1848469      17.452688    
     27300   2.3388884e-06  0.01869091    -0.0091604924  -0.0083036937   0.18841463     17.417298    
     27400   2.3385834e-06  0.019181335   -0.0092376139  -0.0083662166   0.1903762      17.381907    
     27500   2.3382788e-06  0.019677337   -0.009313341   -0.0084272348   0.19232072     17.346517    
     27600   2.3379751e-06  0.020178883   -0.0093876706  -0.0084867434   0.19424814     17.311126    
     27700   2.3376719e-06  0.020685938   -0.0095426367  -0.0086188325   0.19785941     17.275736    
     27800   2.3373692e-06  0.021198469   -0.0096147826  -0.0086757965   0.19976898     17.240345    
     27900   2.3370672e-06  0.021716441   -0.0096855099  -0.0087312226   0.20166122     17.204955    
     28000   2.3367661e-06  0.02223982    -0.0097548155  -0.0087851053   0.2035361      17.169564    
     28100   2.3364085e-06  0.022768565   -0.0099083888  -0.0089145542   0.20718608     17.134174    
     28200   2.3363395e-06  0.023302642   -0.0099754226  -0.0089658594   0.20904234     17.098783    
     28300   2.3361727e-06  0.02384202    -0.010040935   -0.0090155908   0.21088102     17.063392    
     28400   2.3359305e-06  0.024386666   -0.010105039   -0.0090637371   0.21270205     17.028002    
     28500   2.3356575e-06  0.024936543   -0.010256787   -0.0091900978   0.21638475     16.992611    
     28600   2.3353876e-06  0.025491618   -0.010318533   -0.0092354517   0.21818602     16.957221    
     28700   2.3351318e-06  0.026051843   -0.010378769   -0.0092791658   0.21996953     16.92183     
     28800   2.3355807e-06  0.026617169   -0.010437565   -0.0093212992   0.22173532     16.88644     
     28900   2.3361999e-06  0.027187573   -0.010586991   -0.0094439456   0.22544422     16.851049    
     29000   2.3359814e-06  0.027763014   -0.010643316   -0.0094831423   0.22718949     16.815659    
     29100   2.3354962e-06  0.028343437   -0.010698005   -0.0095209579   0.22891684     16.780268    
     29200   2.3347634e-06  0.028928827   -0.010751163   -0.0095569686   0.23062592     16.744878    
     29300   2.334326e-06   0.02951916    -0.010802859   -0.0095913318   0.23231667     16.709487    
     29400   2.3337275e-06  0.030114355   -0.010948679   -0.0097088425   0.23605069     16.674097    
     29500   2.3332546e-06  0.030714407   -0.01099771    -0.0097401204   0.2377195      16.638706    
     29600   2.3333437e-06  0.0313193     -0.011045132   -0.0097701388   0.23937037     16.603316    
     29700   2.3322249e-06  0.031928921   -0.011091079   -0.009798403    0.24100318     16.567925    
     29800   2.3321015e-06  0.032543214   -0.011233488   -0.0099115079   0.24475911     16.532535    
     29900   2.3323981e-06  0.033162156   -0.011276522   -0.0099367729   0.24637013     16.497144    
     30000   2.3335843e-06  0.033785752   -0.011317973   -0.0099603002   0.2479631      16.461754    
Loop time of 7.3996 on 4 procs for 10000 steps with 17392 atoms

Performance: 11676303.336 tau/day, 1351.424 timesteps/s, 23.504 Matom-step/s
99.5% CPU use with 4 MPI tasks x 1 OpenMP threads

MPI task timing breakdown:
Section |  min time  |  avg time  |  max time  |%varavg| %total
---------------------------------------------------------------
Pair    | 0.17969    | 0.18639    | 0.19396    |   1.4 |  2.52
Bond    | 6.7839     | 6.7915     | 6.7965     |   0.2 | 91.78
Neigh   | 0.051148   | 0.051194   | 0.051315   |   0.0 |  0.69
Comm    | 0.013547   | 0.01958    | 0.023814   |   2.7 |  0.26
Output  | 0.0043959  | 0.004532   | 0.0048645  |   0.3 |  0.06
Modify  | 0.26435    | 0.26715    | 0.26901    |   0.3 |  3.61
Other   |            | 0.07929    |            |       |  1.07

Nlocal:           4348 ave        4348 max        4348 min
Histogram: 4 0 0 0 0 0 0 0 0 0
Nghost:          29.25 ave          55 max           1 min
Histogram: 1 0 0 0 0 2 0 0 0 1
Neighs:          25725 ave       27796 max       24493 min
Histogram: 1 1 0 1 0 0 0 0 0 1

Total # of neighbors = 102900
Ave neighs/atom = 5.9165133
Ave special neighs/atom = 13.49264
Neighbor list builds = 23
Dangerous builds = 0
Total wall time: 0:00:09
