LAMMPS (2 Sep 2026)
  using 1 OpenMP thread(s) per MPI task
# Squish four pillars with different Poisson's ratios
#   going from nearly incompressible to auxetic
#   from left to right, nu ~ 0.5, 0.25, 0, <0
#   calibration from DOI: 10.1039/d3sm01373a

units           lj
dimension       3
boundary        p p s
atom_style      bond
special_bonds   lj 0.0 1.0 1.0 coul 0.0 1.0 1.0
newton          on off
comm_modify     vel yes cutoff 2.6
lattice         fcc 1.41
Lattice spacing in x,y,z = 1.4156209 1.4156209 1.4156209
region          box block 0 20 -10 10 -1 21 units box
create_box      4 box bond/types 4 extra/bond/per/atom 20 extra/special/per/atom 50
Created orthogonal box = (0 -10 -1) to (20 10 21)
  1 by 1 by 1 MPI processor grid
mass            * 1.0

# Create initial disordered geometry somewhat near jamming

region          pillar cylinder z 10.0 0.0 7.0 0.0 20.0 units box
region          pillarw cylinder z 10.0 0.0 8.0 -1.0 21.0 units box
create_atoms    1 region pillar
Created 4348 atoms
  using lattice units in orthogonal box = (0 -10 -1.0022) to (20 10 21.0022)
  create_atoms CPU = 0.001 seconds

velocity        all create 0.1 345910 loop geom

pair_style      bpm/spring
pair_coeff      * * 1.0 1.0 1.0

fix             1 all nve
fix             wtemp all wall/region pillarw harmonic 1.0 1.0 1.0

thermo_style    custom step ke pe pxx pyy pzz
thermo          100

timestep        0.1
run             20000
Generated 0 of 6 mixed pair_coeff terms from geometric mixing rule
Neighbor list info ...
  update: every = 1 steps, delay = 0 steps, check = yes
  max neighbors/atom: 2000, page size: 100000
  master list distance cutoff = 1.3
  ghost atom cutoff = 2.6
  binsize = 0.65, bins = 31 31 34
  1 neighbor lists, perpetual/occasional/extra = 1 0 0
  (1) pair bpm/spring, perpetual
      attributes: half, newton on
      pair build: half/bin/newton
      stencil: half/bin/3d
      bin: standard
Per MPI rank memory allocation (min/avg/max) = 9.863 | 9.863 | 9.863 Mbytes
   Step         KinEng         PotEng          Pxx            Pyy            Pzz      
         0   0.1499655      0              0.055430061    0.055308111    0.053729104  
       100   0.0047014171   0.0040647412   0.019925302    0.020725263    0.020275596  
       200   0.0014611276   0.0013801402   0.011985929    0.011862332    0.012286969  
       300   0.00068590066  0.00067237222  0.0081830043   0.0082027217   0.0083209172 
       400   0.00036834072  0.00039963194  0.0063203146   0.0063564423   0.006175383  
       500   0.00023804256  0.00024880407  0.0049366405   0.0048919936   0.0049729636 
       600   0.00015415358  0.0001735039   0.0040535427   0.0040599578   0.004185661  
       700   0.00010805751  0.00012353324  0.0034172673   0.0034359792   0.0034816927 
       800   7.6804195e-05  9.4347815e-05  0.0029714763   0.0030083742   0.0030116933 
       900   5.7885084e-05  7.3501543e-05  0.002613496    0.002594557    0.0026370278 
      1000   4.6591449e-05  5.6777799e-05  0.0022901051   0.0022905531   0.0023251568 
      1100   3.6979184e-05  4.6178853e-05  0.0020634918   0.0020423145   0.0021047811 
      1200   3.0553915e-05  3.6725065e-05  0.0018514475   0.0018337801   0.0018619291 
      1300   2.5200641e-05  3.0667514e-05  0.0016448889   0.0016517654   0.0016814382 
      1400   2.0774473e-05  2.6407287e-05  0.0015355767   0.0015457394   0.001562306  
      1500   1.8089506e-05  2.218171e-05   0.0014006305   0.0014065278   0.0014349557 
      1600   1.593621e-05   1.8773483e-05  0.0012983611   0.0012974224   0.0012833495 
      1700   1.3908559e-05  1.597914e-05   0.0011720892   0.0011833374   0.0011872267 
      1800   1.180441e-05   1.4275363e-05  0.0011243498   0.0011165494   0.0010963632 
      1900   1.0082912e-05  1.2833063e-05  0.0010450544   0.0010472062   0.0010429721 
      2000   8.7412857e-06  1.1483942e-05  0.0010018744   0.0010101141   0.00099918943
      2100   8.0197891e-06  9.977887e-06   0.00094795781  0.00094295863  0.00092697487
      2200   7.3285905e-06  8.7509866e-06  0.00087002509  0.00087277884  0.00087324211
      2300   6.5312311e-06  7.9775568e-06  0.00083333007  0.00084466725  0.00083187624
      2400   5.7498358e-06  7.3134928e-06  0.00080100581  0.00079538444  0.00077856224
      2500   5.138822e-06   6.707047e-06   0.00076876714  0.00076456137  0.00075105392
      2600   4.7545642e-06  6.0068164e-06  0.00072185812  0.00073283157  0.0007158036 
      2700   4.3590344e-06  5.4200125e-06  0.00068709283  0.00069363946  0.000671448  
      2800   4.030811e-06   4.9731714e-06  0.00066401695  0.00065892991  0.0006442951 
      2900   3.6570278e-06  4.5827436e-06  0.00063322746  0.00062560473  0.00061629454
      3000   3.4428364e-06  4.1529741e-06  0.00060381005  0.00059274163  0.0005800012 
      3100   3.2244435e-06  3.8220868e-06  0.00056444094  0.00058007745  0.00056446771
      3200   3.0348082e-06  3.4953001e-06  0.00054157696  0.00054543823  0.00053994   
      3300   2.8229288e-06  3.2603675e-06  0.00051692981  0.00053408173  0.0005174194 
      3400   2.5845959e-06  3.0727247e-06  0.00051383785  0.00051554077  0.00050076164
      3500   2.3635815e-06  2.8813872e-06  0.00050003601  0.00049132534  0.00048170153
      3600   2.1926104e-06  2.7190295e-06  0.00048200428  0.00048598603  0.00046815259
      3700   2.1199084e-06  2.4884796e-06  0.00045885927  0.00046086435  0.00044813556
      3800   1.988025e-06   2.33108e-06    0.00044696868  0.00044382611  0.00043325383
      3900   1.8237693e-06  2.2452754e-06  0.00043063811  0.00044734592  0.00042799797
      4000   1.7280333e-06  2.1183733e-06  0.00042239651  0.00043083304  0.00041949421
      4100   1.6602282e-06  1.9489852e-06  0.00040915001  0.00040844288  0.00039432352
      4200   1.6083805e-06  1.8207119e-06  0.00040046722  0.00039610509  0.00038735616
      4300   1.4921262e-06  1.7519398e-06  0.00039003478  0.0003884137   0.00038070481
      4400   1.4134288e-06  1.6640798e-06  0.00038123195  0.00037966285  0.00036935985
      4500   1.3597043e-06  1.5767227e-06  0.0003708958   0.00036709685  0.00036304451
      4600   1.2864729e-06  1.517238e-06   0.00036264649  0.00036364328  0.00035297461
      4700   1.2361644e-06  1.4359747e-06  0.00035033577  0.00035207682  0.00034758599
      4800   1.1600172e-06  1.3984584e-06  0.00034817254  0.00034149705  0.00034219095
      4900   1.1157222e-06  1.323511e-06   0.00033743714  0.00033600295  0.00032900417
      5000   1.0548426e-06  1.283144e-06   0.00033090821  0.0003309975   0.00032965385
      5100   1.0311345e-06  1.2167414e-06  0.00032690067  0.00032132786  0.00032023686
      5200   9.8725983e-07  1.1644827e-06  0.00031812467  0.00031388519  0.00030901244
      5300   9.4364206e-07  1.1348599e-06  0.0003176419   0.00031183737  0.00030623492
      5400   9.1842582e-07  1.0804918e-06  0.00030804157  0.00030977023  0.00030120335
      5500   8.8319586e-07  1.0461255e-06  0.00030281763  0.00030458317  0.0002962491 
      5600   8.5376041e-07  1.00273e-06    0.00030065944  0.00029783158  0.00028969448
      5700   8.2729177e-07  9.6578501e-07  0.00028894489  0.00029543017  0.00028780665
      5800   7.9147156e-07  9.4393049e-07  0.00029027225  0.00029295284  0.00028245063
      5900   7.72031e-07    9.0810231e-07  0.00028286248  0.00028702842  0.00027744145
      6000   7.5513105e-07  8.7403433e-07  0.00027933421  0.0002832311   0.00027292959
      6100   7.3009776e-07  8.4551788e-07  0.0002764318   0.00027397531  0.00027109507
      6200   7.1145971e-07  8.2693975e-07  0.00027582499  0.00027238911  0.00026419328
      6300   6.8685397e-07  8.0402035e-07  0.00027393804  0.00027146078  0.00026271585
      6400   6.6896818e-07  7.8087429e-07  0.00027239704  0.00026814797  0.00026085824
      6500   6.5828245e-07  7.5591653e-07  0.0002648016   0.00026344832  0.00025898777
      6600   6.3551923e-07  7.4710442e-07  0.00026533061  0.0002616505   0.00025101773
      6700   6.1903272e-07  7.2228802e-07  0.00026135948  0.00025811555  0.00025257017
      6800   6.0655174e-07  7.0415413e-07  0.00025670529  0.0002532195   0.00024988498
      6900   5.9577735e-07  6.8250903e-07  0.00025426464  0.00025206188  0.00024797509
      7000   5.782706e-07   6.7431309e-07  0.0002537986   0.0002509036   0.00024812069
      7100   5.6748943e-07  6.550932e-07   0.00024692003  0.00025029471  0.00024235131
      7200   5.5770744e-07  6.3884329e-07  0.00024773457  0.00024520044  0.00024189425
      7300   5.4213373e-07  6.3169236e-07  0.00024509313  0.00024391672  0.00023940235
      7400   5.3444661e-07  6.1561587e-07  0.00024254115  0.00024231215  0.00023857689
      7500   5.2517784e-07  6.0157632e-07  0.00023856327  0.0002418291   0.00023642252
      7600   5.1300775e-07  5.9346959e-07  0.00023938177  0.00024013838  0.00023388083
      7700   5.0292973e-07  5.8607797e-07  0.0002379004   0.00024000876  0.00022887362
      7800   4.9329257e-07  5.7692715e-07  0.00023766695  0.00023491966  0.00023163055
      7900   4.8777119e-07  5.6467313e-07  0.00023182878  0.00023457894  0.00022954507
      8000   4.8002773e-07  5.5258968e-07  0.00023019721  0.0002334114   0.00022712047
      8100   4.7568175e-07  5.4142084e-07  0.0002300113   0.00023053686  0.00022500404
      8200   4.6645254e-07  5.3525315e-07  0.00022910475  0.00023010835  0.00022474765
      8300   4.6031227e-07  5.287123e-07   0.00022859833  0.00022892974  0.00022227301
      8400   4.5124671e-07  5.2325475e-07  0.00022478987  0.00022794466  0.00022158113
      8500   4.4538493e-07  5.1719399e-07  0.00022677884  0.00022751107  0.00022080373
      8600   4.4229482e-07  5.0710559e-07  0.00022478523  0.00022514896  0.00021629804
      8700   4.370178e-07   5.0122029e-07  0.00022504603  0.00022425143  0.00021791916
      8800   4.3210591e-07  4.9490225e-07  0.00022661973  0.00022442563  0.00021647492
      8900   4.2868219e-07  4.8700015e-07  0.00022365243  0.00022232308  0.00021651147
      9000   4.2157691e-07  4.8332686e-07  0.00022258678  0.00022149454  0.00021458055
      9100   4.171014e-07   4.788599e-07   0.00022051903  0.00022224647  0.00021540363
      9200   4.1132214e-07  4.7466508e-07  0.00022132372  0.00022152474  0.00021397863
      9300   4.0942642e-07  4.6624952e-07  0.00022019332  0.00022041257  0.00021187929
      9400   4.0554019e-07  4.608058e-07   0.00021841772  0.00021954229  0.00021071558
      9500   4.0097045e-07  4.5661741e-07  0.0002176175   0.00021679221  0.00021020989
      9600   3.9602125e-07  4.5468089e-07  0.00021606154  0.00021709183  0.00020988504
      9700   3.9509721e-07  4.4838388e-07  0.00021491287  0.00021529717  0.00020779899
      9800   3.9271109e-07  4.4296224e-07  0.00021363857  0.00021631944  0.00020725107
      9900   3.9014354e-07  4.3999643e-07  0.00021401399  0.00021578665  0.0002095074 
     10000   3.8613452e-07  4.36417e-07    0.00021319739  0.00021446424  0.00020774582
     10100   3.8442393e-07  4.3089527e-07  0.00021303963  0.00021423286  0.00020663803
     10200   3.8174929e-07  4.2931158e-07  0.00021348926  0.0002129298   0.00020846371
     10300   3.7834326e-07  4.2488087e-07  0.00021238493  0.00021208111  0.00020689382
     10400   3.7533895e-07  4.2364034e-07  0.00021222343  0.00021282634  0.00020751736
     10500   3.728197e-07   4.1950482e-07  0.00020963079  0.00021251154  0.00020637996
     10600   3.6921976e-07  4.1648499e-07  0.00021001514  0.00021032835  0.00020463967
     10700   3.6780183e-07  4.1576061e-07  0.00020961193  0.00021231143  0.00020627378
     10800   3.6628168e-07  4.1118504e-07  0.00021031878  0.00021251198  0.00020380925
     10900   3.6413682e-07  4.0921179e-07  0.00020904854  0.00021010619  0.00020461699
     11000   3.6185608e-07  4.0657261e-07  0.0002088683   0.00021136025  0.00020313781
     11100   3.6126957e-07  4.0414972e-07  0.00021007109  0.00021101653  0.00020443405
     11200   3.5889912e-07  4.0030613e-07  0.0002084864   0.00020965029  0.0002032762 
     11300   3.571594e-07   3.9789505e-07  0.00020829683  0.00020899041  0.00020127141
     11400   3.5549042e-07  3.9636457e-07  0.00020792133  0.00020828383  0.00020110838
     11500   3.5380963e-07  3.9447478e-07  0.00020743284  0.00020842567  0.00020178301
     11600   3.52187e-07    3.922307e-07   0.00020877561  0.00020646092  0.00020174606
     11700   3.5049325e-07  3.9042323e-07  0.00020550718  0.00020831756  0.00020119892
     11800   3.5027229e-07  3.8702683e-07  0.00020613817  0.00020768963  0.00020089147
     11900   3.4882454e-07  3.8505728e-07  0.00020527836  0.00020557818  0.00020111144
     12000   3.4716779e-07  3.8334799e-07  0.00020584352  0.00020536894  0.00020116412
     12100   3.4606896e-07  3.8238514e-07  0.00020539886  0.00020525301  0.00020005643
     12200   3.4410024e-07  3.8078736e-07  0.00020560745  0.00020605086  0.00019961816
     12300   3.4367197e-07  3.7906803e-07  0.00020639093  0.00020446623  0.00019961353
     12400   3.4214874e-07  3.7814411e-07  0.00020626177  0.00020459308  0.0002010288 
     12500   3.4137039e-07  3.7553846e-07  0.00020520634  0.0002052268   0.00019887569
     12600   3.4014948e-07  3.7364624e-07  0.00020416272  0.00020365387  0.00019945503
     12700   3.3951479e-07  3.7253637e-07  0.00020572373  0.00020473538  0.00019922805
     12800   3.375861e-07   3.7131798e-07  0.00020578884  0.00020481446  0.00019847563
     12900   3.3702701e-07  3.7086402e-07  0.00020466598  0.00020419975  0.00019953575
     13000   3.3538233e-07  3.6972921e-07  0.0002037645   0.00020385566  0.00019855419
     13100   3.352546e-07   3.6765035e-07  0.00020360907  0.00020164572  0.00019955443
     13200   3.3442082e-07  3.671746e-07   0.00020375085  0.00020344305  0.0001984959 
     13300   3.3306069e-07  3.6669459e-07  0.0002044764   0.00020324694  0.00019843401
     13400   3.3184617e-07  3.6590996e-07  0.00020409244  0.00020313795  0.00019804517
     13500   3.3109142e-07  3.6479264e-07  0.00020278544  0.00020320176  0.00019831719
     13600   3.3059895e-07  3.6342631e-07  0.00020377535  0.00020366395  0.00019833424
     13700   3.2977577e-07  3.6229998e-07  0.00020274993  0.00020267042  0.00019798432
     13800   3.2889003e-07  3.6202267e-07  0.00020171545  0.00020321545  0.00019783217
     13900   3.2812518e-07  3.6139313e-07  0.00020245893  0.00020303925  0.00019761936
     14000   3.273451e-07   3.6011697e-07  0.00020124864  0.00020245689  0.00019772052
     14100   3.268265e-07   3.5836524e-07  0.00020200922  0.00020143754  0.00019761204
     14200   3.26264e-07    3.5834111e-07  0.00020233628  0.00020091607  0.00019730436
     14300   3.2592743e-07  3.5711816e-07  0.00020179872  0.00020176404  0.00019731582
     14400   3.254488e-07   3.5710991e-07  0.00020255387  0.00020121463  0.0001969081 
     14500   3.2510825e-07  3.5520869e-07  0.00020157642  0.00020065895  0.0001963079 
     14600   3.2444573e-07  3.5441111e-07  0.00020127625  0.00020142491  0.0001953027 
     14700   3.239366e-07   3.546165e-07   0.00020211515  0.00020154747  0.00019627723
     14800   3.2350555e-07  3.534068e-07   0.00020163779  0.0002008793   0.0001962141 
     14900   3.2315387e-07  3.5233769e-07  0.00020138464  0.00020072802  0.00019642665
     15000   3.2231204e-07  3.5155628e-07  0.00020133245  0.00020104689  0.00019604742
     15100   3.2194144e-07  3.5188177e-07  0.00020190537  0.00020118155  0.00019653705
     15200   3.2172712e-07  3.5069645e-07  0.00020118984  0.00020063323  0.00019689143
     15300   3.2121628e-07  3.5070525e-07  0.0002009028   0.00020049979  0.00019693537
     15400   3.210997e-07   3.4939947e-07  0.0002006994   0.00020117817  0.00019531768
     15500   3.2098283e-07  3.4833909e-07  0.00020030896  0.00019909514  0.00019599619
     15600   3.2085791e-07  3.4737325e-07  0.00020030272  0.00020079726  0.00019602932
     15700   3.2047993e-07  3.4733255e-07  0.00020059326  0.00020039841  0.00019527984
     15800   3.2030122e-07  3.4690943e-07  0.00019987366  0.00019954202  0.00019677605
     15900   3.2019143e-07  3.4589415e-07  0.00019942749  0.00020030367  0.00019640561
     16000   3.1975434e-07  3.4597569e-07  0.00020136829  0.00020001014  0.00019635934
     16100   3.1951724e-07  3.4512983e-07  0.00019979083  0.00019966607  0.00019586074
     16200   3.1939486e-07  3.444612e-07   0.0002002953   0.00019961801  0.00019487417
     16300   3.1902823e-07  3.4403407e-07  0.00019939099  0.00019923056  0.00019539114
     16400   3.1854527e-07  3.4377307e-07  0.00019972981  0.00019945978  0.0001952697 
     16500   3.1866612e-07  3.4274088e-07  0.00020015011  0.00019937764  0.00019444063
     16600   3.1806337e-07  3.4312726e-07  0.00019900181  0.00019850021  0.00019507064
     16700   3.1811481e-07  3.4201381e-07  0.00019881232  0.00019856376  0.0001951542 
     16800   3.1804894e-07  3.4099769e-07  0.00019933095  0.00019824773  0.00019402095
     16900   3.1756301e-07  3.4142891e-07  0.00019907536  0.00019915749  0.00019380344
     17000   3.1731716e-07  3.4076291e-07  0.00019862258  0.00019908837  0.00019466977
     17100   3.1688332e-07  3.403065e-07   0.00019832868  0.00019800598  0.00019414346
     17200   3.1658187e-07  3.4024231e-07  0.00019881626  0.00019912404  0.00019354189
     17300   3.1643983e-07  3.4038422e-07  0.00019817648  0.00019965285  0.0001947916 
     17400   3.1600914e-07  3.3957264e-07  0.00019818247  0.00019894527  0.00019371261
     17500   3.1583372e-07  3.39608e-07    0.00019818205  0.00019958157  0.00019459575
     17600   3.1543306e-07  3.3903673e-07  0.00019822384  0.00019911247  0.00019333386
     17700   3.1506363e-07  3.3906423e-07  0.00019768666  0.00019770807  0.0001939597 
     17800   3.1494424e-07  3.3895968e-07  0.00019856235  0.00019783105  0.00019401513
     17900   3.1463563e-07  3.3889045e-07  0.00019853607  0.00019756608  0.00019376694
     18000   3.1437034e-07  3.3818952e-07  0.0001982511   0.00019788329  0.00019423886
     18100   3.1444856e-07  3.3806351e-07  0.00019900949  0.00019713132  0.00019471858
     18200   3.1424236e-07  3.3752396e-07  0.0001974785   0.00019689056  0.00019488657
     18300   3.1401347e-07  3.3767828e-07  0.00019801268  0.00019717086  0.00019425885
     18400   3.1389631e-07  3.3673134e-07  0.00019741044  0.00019694949  0.00019408402
     18500   3.1400612e-07  3.3662541e-07  0.00019799725  0.00019796535  0.00019433815
     18600   3.1372277e-07  3.3598781e-07  0.00019803356  0.0001971423   0.00019394612
     18700   3.1351075e-07  3.3579629e-07  0.00019749796  0.00019746569  0.0001939467 
     18800   3.1357457e-07  3.3563998e-07  0.00019714864  0.00019684308  0.00019414536
     18900   3.1340881e-07  3.3519596e-07  0.00019679814  0.0001970932   0.00019407662
     19000   3.1316139e-07  3.3518549e-07  0.00019631131  0.00019719386  0.00019398717
     19100   3.1313634e-07  3.3534629e-07  0.00019717518  0.0001974615   0.00019280249
     19200   3.1300411e-07  3.3484043e-07  0.0001973268   0.00019791077  0.00019342243
     19300   3.1290344e-07  3.3480626e-07  0.00019738293  0.00019685824  0.00019353122
     19400   3.1278681e-07  3.3460418e-07  0.00019765549  0.00019761586  0.00019340516
     19500   3.1266002e-07  3.3397576e-07  0.00019694158  0.00019768283  0.00019343758
     19600   3.1248055e-07  3.3386942e-07  0.00019728369  0.00019651542  0.00019418618
     19700   3.1237723e-07  3.3325052e-07  0.00019771386  0.00019682814  0.00019390833
     19800   3.1220391e-07  3.3369028e-07  0.00019676634  0.00019716081  0.00019393823
     19900   3.12172e-07    3.3311001e-07  0.00019727112  0.00019708852  0.00019345478
     20000   3.1211908e-07  3.3294223e-07  0.00019701085  0.00019750168  0.00019423063
Loop time of 5.15143 on 1 procs for 20000 steps with 4348 atoms

Performance: 33544057.165 tau/day, 3882.414 timesteps/s, 16.881 Matom-step/s
99.6% CPU use with 1 MPI tasks x 1 OpenMP threads

MPI task timing breakdown:
Section |  min time  |  avg time  |  max time  |%varavg| %total
---------------------------------------------------------------
Pair    | 2.4627     | 2.4627     | 2.4627     |   0.0 | 47.81
Bond    | 0.00070322 | 0.00070322 | 0.00070322 |   0.0 |  0.01
Neigh   | 0.14698    | 0.14698    | 0.14698    |   0.0 |  2.85
Comm    | 0.0069948  | 0.0069948  | 0.0069948  |   0.0 |  0.14
Output  | 0.0057559  | 0.0057559  | 0.0057559  |   0.0 |  0.11
Modify  | 2.4362     | 2.4362     | 2.4362     |   0.0 | 47.29
Other   |            | 0.09208    |            |       |  1.79

Nlocal:           4348 ave        4348 max        4348 min
Histogram: 1 0 0 0 0 0 0 0 0 0
Nghost:              0 ave           0 max           0 min
Histogram: 1 0 0 0 0 0 0 0 0 0
Neighs:          23318 ave       23318 max       23318 min
Histogram: 1 0 0 0 0 0 0 0 0 0

Total # of neighbors = 23318
Ave neighs/atom = 5.3629255
Ave special neighs/atom = 0
Neighbor list builds = 119
Dangerous builds = 0
unfix           wtemp

# Replicate cylinder and add bonds

replicate       4 1 1
Replication is creating a 4x1x1 = 4 times larger system...
  orthogonal box = (0 -10 -0.00326037) to (80 10 20.003211)
  1 by 1 by 1 MPI processor grid
  17392 atoms
Finding 1-2 1-3 1-4 neighbors ...
  special bond factors lj:    0        1        1       
  special bond factors coul:  0        1        1       
     0 = max # of 1-2 neighbors
   101 = max # of special neighbors
  special bonds CPU = 0.001 seconds
  replicate CPU = 0.003 seconds

region          r1 block 0.0  20.0 EDGE EDGE EDGE EDGE side in units box
region          r2 block 20.0 40.0 EDGE EDGE EDGE EDGE side in units box
region          r3 block 40.0 60.0 EDGE EDGE EDGE EDGE side in units box
region          r4 block 60.0 80.0 EDGE EDGE EDGE EDGE side in units box

group           p1 region r1
4348 atoms in group p1
group           p2 region r2
4348 atoms in group p2
group           p3 region r3
4348 atoms in group p3
group           p4 region r4
4348 atoms in group p4

set             group p2 type 2
Setting atom values ...
  4348 settings made for type
set             group p3 type 3
Setting atom values ...
  4348 settings made for type
set             group p4 type 4
Setting atom values ...
  4348 settings made for type

velocity        all set 0.0 0.0 0.0
neighbor        1.0 bin

create_bonds    many p1 p1 1 0.0 1.5
Generated 0 of 6 mixed pair_coeff terms from geometric mixing rule
Neighbor list info ...
  update: every = 1 steps, delay = 0 steps, check = yes
  max neighbors/atom: 2000, page size: 100000
  master list distance cutoff = 2
  ghost atom cutoff = 2.6
  binsize = 1, bins = 80 20 21
  2 neighbor lists, perpetual/occasional/extra = 1 1 0
  (1) command create_bonds, occasional
      attributes: full, newton on
      pair build: full/bin
      stencil: full/bin/3d
      bin: standard
  (2) pair bpm/spring, perpetual
      attributes: half, newton on
      pair build: half/bin/newton
      stencil: half/bin/3d
      bin: standard
Added 29297 bonds, new total = 29297
Finding 1-2 1-3 1-4 neighbors ...
  special bond factors lj:    0        1        1       
  special bond factors coul:  0        1        1       
    19 = max # of 1-2 neighbors
   101 = max # of special neighbors
  special bonds CPU = 0.001 seconds
create_bonds    many p2 p2 2 0.0 1.5
Generated 0 of 6 mixed pair_coeff terms from geometric mixing rule
WARNING: Bonds are defined but no bond style is set (src/force.cpp:165)
WARNING: Likewise 1-2 special neighbor interactions != 1.0 (src/force.cpp:167)
Neighbor list info ...
  update: every = 1 steps, delay = 0 steps, check = yes
  max neighbors/atom: 2000, page size: 100000
  master list distance cutoff = 2
  ghost atom cutoff = 2.6
  binsize = 1, bins = 80 20 21
  2 neighbor lists, perpetual/occasional/extra = 1 1 0
  (1) command create_bonds, occasional
      attributes: full, newton on
      pair build: full/bin
      stencil: full/bin/3d
      bin: standard
  (2) pair bpm/spring, perpetual
      attributes: half, newton on
      pair build: half/bin/newton
      stencil: half/bin/3d
      bin: standard
Added 29297 bonds, new total = 58594
Finding 1-2 1-3 1-4 neighbors ...
  special bond factors lj:    0        1        1       
  special bond factors coul:  0        1        1       
    19 = max # of 1-2 neighbors
   101 = max # of special neighbors
  special bonds CPU = 0.002 seconds
create_bonds    many p3 p3 3 0.0 1.5
Generated 0 of 6 mixed pair_coeff terms from geometric mixing rule
WARNING: Bonds are defined but no bond style is set (src/force.cpp:165)
WARNING: Likewise 1-2 special neighbor interactions != 1.0 (src/force.cpp:167)
Neighbor list info ...
  update: every = 1 steps, delay = 0 steps, check = yes
  max neighbors/atom: 2000, page size: 100000
  master list distance cutoff = 2
  ghost atom cutoff = 2.6
  binsize = 1, bins = 80 20 21
  2 neighbor lists, perpetual/occasional/extra = 1 1 0
  (1) command create_bonds, occasional
      attributes: full, newton on
      pair build: full/bin
      stencil: full/bin/3d
      bin: standard
  (2) pair bpm/spring, perpetual
      attributes: half, newton on
      pair build: half/bin/newton
      stencil: half/bin/3d
      bin: standard
Added 29297 bonds, new total = 87891
Finding 1-2 1-3 1-4 neighbors ...
  special bond factors lj:    0        1        1       
  special bond factors coul:  0        1        1       
    19 = max # of 1-2 neighbors
   101 = max # of special neighbors
  special bonds CPU = 0.003 seconds
create_bonds    many p4 p4 4 0.0 1.5
Generated 0 of 6 mixed pair_coeff terms from geometric mixing rule
WARNING: Bonds are defined but no bond style is set (src/force.cpp:165)
WARNING: Likewise 1-2 special neighbor interactions != 1.0 (src/force.cpp:167)
Neighbor list info ...
  update: every = 1 steps, delay = 0 steps, check = yes
  max neighbors/atom: 2000, page size: 100000
  master list distance cutoff = 2
  ghost atom cutoff = 2.6
  binsize = 1, bins = 80 20 21
  2 neighbor lists, perpetual/occasional/extra = 1 1 0
  (1) command create_bonds, occasional
      attributes: full, newton on
      pair build: full/bin
      stencil: full/bin/3d
      bin: standard
  (2) pair bpm/spring, perpetual
      attributes: half, newton on
      pair build: half/bin/newton
      stencil: half/bin/3d
      bin: standard
Added 29297 bonds, new total = 117188
Finding 1-2 1-3 1-4 neighbors ...
  special bond factors lj:    0        1        1       
  special bond factors coul:  0        1        1       
    19 = max # of 1-2 neighbors
   101 = max # of special neighbors
  special bonds CPU = 0.005 seconds

neighbor        0.3 bin
special_bonds   lj 0.0 1.0 1.0 coul 1.0 1.0 1.0

bond_style      bpm/spring break no smooth no volume/factor yes
bond_coeff      1 1.0 0 1.0 -0.8
bond_coeff      2 1.0 0 1.0 0.0
bond_coeff      3 1.0 0 1.0 2.0
bond_coeff      4 1.0 0 1.0 10.0

# squish

region          b block EDGE EDGE EDGE EDGE -1.0 2.0 units box
region          t block EDGE EDGE EDGE EDGE 18.0 21.0 units box
group           bot region b
2016 atoms in group bot
group           top region t
2032 atoms in group top

velocity        top set 0.0 0.0 -0.0025
fix             2 bot setforce 0.0 0.0 0.0
fix             3 top setforce 0.0 0.0 0.0

compute         zmax all reduce max z

thermo_style    custom step ke pe pxx pyy pzz c_zmax
#dump            1 all custom 100 atomDump id type x y z

run             10000

CITE-CITE-CITE-CITE-CITE-CITE-CITE-CITE-CITE-CITE-CITE-CITE-CITE

Your simulation uses code contributions which should be cited:

- BPM bond style: https://doi.org/10.1039/D3SM01373A

@Article{Clemmer2024,
 author =  {Clemmer, Joel T. and Monti, Joseph M. and Lechman, Jeremy B.},
 title =   {A soft departure from jamming: the compaction of deformable
            granular matter under high pressures},
 journal = {Soft Matter},
 year =    2024,
 volume =  20,
 number =  8,
 pages =   {1702--1718}
}

CITE-CITE-CITE-CITE-CITE-CITE-CITE-CITE-CITE-CITE-CITE-CITE-CITE

Generated 0 of 6 mixed pair_coeff terms from geometric mixing rule
Neighbor list info ...
  update: every = 1 steps, delay = 0 steps, check = yes
  max neighbors/atom: 2000, page size: 100000
  master list distance cutoff = 1.3
  ghost atom cutoff = 2.6
  binsize = 0.65, bins = 124 31 31
  1 neighbor lists, perpetual/occasional/extra = 1 0 0
  (1) pair bpm/spring, perpetual
      attributes: half, newton on
      pair build: half/bin/newton
      stencil: half/bin/3d
      bin: standard
Per MPI rank memory allocation (min/avg/max) = 34.05 | 34.05 | 34.05 Mbytes
   Step         KinEng         PotEng          Pxx            Pyy            Pzz           c_zmax    
     20000   7.3167483e-07  0              5.4775818e-05  5.6892016e-05  0.000168804    20.001063    
     20100   3.1403677e-06  4.2178552e-06 -0.00014883565 -0.00013566804  0.0029567365   19.965673    
     20200   2.557257e-06   1.5161322e-05 -0.00028676007 -0.00026643403  0.0057044632   19.930282    
     20300   2.5643472e-06  3.387968e-05  -0.00043442765 -0.0004059728   0.0084399235   19.894892    
     20400   2.4323528e-06  6.0297066e-05 -0.00057110836 -0.00053229408  0.011161716    19.859501    
     20500   2.2401141e-06  9.4197444e-05 -0.00072608722 -0.00067688446  0.013968295    19.824111    
     20600   2.3248332e-06  0.00013566767 -0.00086822176 -0.00080936488  0.016679955    19.78872     
     20700   2.4874581e-06  0.00018458138 -0.0010119854  -0.00094383089  0.019375967    19.75333     
     20800   2.3617534e-06  0.00024098418 -0.0011544917  -0.0010762711   0.022057631    19.717939    
     20900   2.3404247e-06  0.00030481636 -0.001305873   -0.0012169942   0.024913601    19.682549    
     21000   2.3875527e-06  0.00037605823 -0.0014474141  -0.0013486858   0.027587061    19.647158    
     21100   2.3280856e-06  0.00045468925 -0.001587814   -0.0014791125   0.030246115    19.611768    
     21200   2.4004681e-06  0.00054068189 -0.0017273255  -0.0016085438   0.032890777    19.576377    
     21300   2.3671852e-06  0.0006340116  -0.0018800546  -0.001750194    0.035793449    19.540987    
     21400   2.3577863e-06  0.00073465323 -0.0020185     -0.0018783921   0.038429247    19.505596    
     21500   2.3656913e-06  0.00084258176 -0.002155849   -0.0020054889   0.041050531    19.470206    
     21600   2.3671609e-06  0.00095777161 -0.0022921518  -0.0021315114   0.04365724     19.434815    
     21700   2.3622273e-06  0.0010801972  -0.0024461612  -0.0022738244   0.04660701     19.399424    
     21800   2.3713626e-06  0.0012098332  -0.0025813772  -0.0023985625   0.049204535    19.364034    
     21900   2.3619521e-06  0.0013466555  -0.0027155052  -0.0025221586   0.051787368    19.328643    
     22000   2.3627127e-06  0.0014906377  -0.0028485486  -0.0026446248   0.054355535    19.293253    
     22100   2.3661334e-06  0.0016417552  -0.0029805108  -0.002765963    0.056909004    19.257862    
     22200   2.3633184e-06  0.0017999823  -0.0031356343  -0.0029086543   0.059911027    19.222472    
     22300   2.3644262e-06  0.0019652931  -0.0032664379  -0.0030286383   0.062454754    19.187081    
     22400   2.3641808e-06  0.0021376615  -0.0033961356  -0.0031474725   0.06498366     19.151691    
     22500   2.3626596e-06  0.0023170617  -0.0035247242  -0.0032651413   0.06749775     19.1163      
     22600   2.3630633e-06  0.0025034671  -0.0036808883  -0.003408207    0.070546764    19.08091     
     22700   2.3633196e-06  0.0026968515  -0.0038082502  -0.0035244555   0.073050695    19.045519    
     22800   2.3622856e-06  0.0028971891  -0.003934489   -0.0036395221   0.075539667    19.010129    
     22900   2.3625495e-06  0.0031044534  -0.0040596     -0.0037534054   0.078013673    18.974738    
     23000   2.3621005e-06  0.0033186181  -0.0042166993  -0.0038967061   0.081109739    18.939348    
     23100   2.3617381e-06  0.0035396569  -0.0043405197  -0.0040090924   0.083573141    18.903957    
     23200   2.3617581e-06  0.0037675431  -0.0044631977  -0.0041202757   0.086021435    18.868567    
     23300   2.3615144e-06  0.0040022497  -0.0045847301  -0.0042302523   0.08845461     18.833176    
     23400   2.3611415e-06  0.0042437498  -0.0047426549  -0.0043736374   0.091597767    18.797786    
     23500   2.36099e-06    0.0044920164  -0.0048628329  -0.0044820409   0.094019874    18.762395    
     23600   2.3606795e-06  0.0047470219  -0.0049818443  -0.0045892139   0.096426725    18.727005    
     23700   2.3604104e-06  0.0050087393  -0.0050996871  -0.0046951524   0.098818311    18.691614    
     23800   2.360227e-06   0.0052771413  -0.0052163581  -0.0047998527   0.10119463     18.656224    
     23900   2.3599597e-06  0.0055522004  -0.0053747417  -0.004942751    0.1043886      18.620833    
     24000   2.3597067e-06  0.0058338889  -0.00548998    -0.0050457851   0.10675321     18.585442    
     24100   2.3594952e-06  0.0061221795  -0.0056040277  -0.0051475583   0.1091024      18.550052    
     24200   2.3592612e-06  0.006417044   -0.0057168829  -0.0052480677   0.11143616     18.514661    
     24300   2.359034e-06   0.0067184544  -0.0058758046  -0.005390669    0.11467688     18.479271    
     24400   2.3588145e-06  0.0070263827  -0.0059871616  -0.0054894325   0.11699841     18.44388     
     24500   2.3585673e-06  0.0073408006  -0.0060973068  -0.005586909    0.11930436     18.40849     
     24600   2.3583256e-06  0.0076616794  -0.0062062373  -0.0056830942   0.12159471     18.373099    
     24700   2.3580917e-06  0.0079889909  -0.0063655664  -0.0058252189   0.12488209     18.337709    
     24800   2.3578588e-06  0.0083227063  -0.0064729294  -0.0059195746   0.12715969     18.302318    
     24900   2.3576319e-06  0.0086627968  -0.0065790596  -0.0060126167   0.12942152     18.266928    
     25000   2.3574079e-06  0.0090092334  -0.0066839539  -0.0061043408   0.13166759     18.231537    
     25100   2.3571813e-06  0.0093619873  -0.0068435552  -0.0062458017   0.13500151     18.196147    
     25200   2.3569616e-06  0.0097210291  -0.0069468128  -0.006335611    0.13723425     18.160756    
     25300   2.3567463e-06  0.010086329   -0.0070488159  -0.006424079    0.13945106     18.125366    
     25400   2.3565307e-06  0.010457859   -0.0071495616  -0.0065112013   0.14165191     18.089975    
     25500   2.356316e-06   0.010835588   -0.0072490471  -0.0065969738   0.1438368      18.054585    
     25600   2.3561006e-06  0.011219486   -0.0074083317  -0.0067369204   0.14721915     18.019194    
     25700   2.3558844e-06  0.011609524   -0.0075060937  -0.0068206705   0.14938996     17.983804    
     25800   2.3556728e-06  0.012005671   -0.0076025762  -0.0069030464   0.15154462     17.948413    
     25900   2.3554669e-06  0.012407897   -0.0076977768  -0.0069840442   0.15368314     17.913023    
     26000   2.355264e-06   0.012816172   -0.0078569913  -0.0071228567   0.15711121     17.877632    
     26100   2.3550645e-06  0.013230465   -0.0079503961  -0.0072017409   0.15923502     17.842242    
     26200   2.3548688e-06  0.013650745   -0.0080425     -0.0072792222   0.16134248     17.806851    
     26300   2.3546766e-06  0.014076981   -0.0081333002  -0.0073552964   0.16343359     17.77146     
     26400   2.3544887e-06  0.014509143   -0.0082922877  -0.0074927523   0.16690709     17.73607     
     26500   2.3543061e-06  0.014947198   -0.0083812178  -0.0075666181   0.16898282     17.700679    
     26600   2.3541273e-06  0.015391115   -0.0084688253  -0.0076390518   0.171042       17.665289    
     26700   2.3539516e-06  0.015840863   -0.0085551074  -0.0077100488   0.17308462     17.629898    
     26800   2.3537801e-06  0.01629641    -0.008713704   -0.007845913    0.17660317     17.594508    
     26900   2.3536141e-06  0.016757723   -0.00879804    -0.0079146036   0.17862971     17.559117    
     27000   2.3534543e-06  0.017224771   -0.0088810315  -0.0079818316   0.18063948     17.523727    
     27100   2.3533012e-06  0.017697521   -0.0089626757  -0.0080475925   0.18263244     17.488336    
     27200   2.3531553e-06  0.01817594    -0.0090429701  -0.0081118819   0.18460859     17.452946    
     27300   2.3530162e-06  0.018659996   -0.0092003302  -0.0082449701   0.18817176     17.417555    
     27400   2.3528844e-06  0.019149655   -0.0092785845  -0.0083068296   0.1901309      17.382165    
     27500   2.3527608e-06  0.019644884   -0.0093554695  -0.0083671908   0.19207301     17.346774    
     27600   2.3526463e-06  0.02014565    -0.009430983   -0.0084260491   0.19399805     17.311384    
     27700   2.3525412e-06  0.020651919   -0.0095875431  -0.008556961    0.19760475     17.275993    
     27800   2.3524457e-06  0.021163658   -0.0096609367  -0.0086132834   0.19951198     17.240603    
     27900   2.3523607e-06  0.021680831   -0.0097329392  -0.0086680754   0.20140192     17.205212    
     28000   2.3522869e-06  0.022203405   -0.0098035481  -0.008721332    0.20327454     17.169822    
     28100   2.3522253e-06  0.022731344   -0.0099591182  -0.0088497867   0.20692409     17.134431    
     28200   2.3521771e-06  0.023264616   -0.010027525   -0.0089003969   0.20877805     17.099041    
     28300   2.3521437e-06  0.023803183   -0.010094519   -0.0089494433   0.21061443     17.06365     
     28400   2.3521259e-06  0.024347011   -0.010160097   -0.0089969208   0.21243322     17.02826     
     28500   2.3521248e-06  0.024896064   -0.010314478   -0.0091226205   0.21612481     16.992869    
     28600   2.3520098e-06  0.025450299   -0.010377759   -0.0091673227   0.21792414     16.957478    
     28700   2.3515991e-06  0.026009673   -0.010439624   -0.0092104908   0.21970562     16.922088    
     28800   2.3514594e-06  0.026574164   -0.010500003   -0.0092520296   0.2214692      16.886697    
     28900   2.3515824e-06  0.027143738   -0.01055896    -0.0092919514   0.22321484     16.851307    
     29000   2.3516177e-06  0.027718328   -0.010711008   -0.0094133266   0.22694521     16.815916    
     29100   2.3517013e-06  0.028297914   -0.010767494   -0.0094503052   0.22867027     16.780526    
     29200   2.3521876e-06  0.028882466   -0.010822578   -0.0094857579   0.23037706     16.745135    
     29300   2.352557e-06   0.029471953   -0.010876132   -0.0095195551   0.23206557     16.709745    
     29400   2.3527712e-06  0.030066332   -0.011026166   -0.009637265    0.23583041     16.674354    
     29500   2.3524344e-06  0.030665541   -0.011077289   -0.0096679642   0.23749725     16.638964    
     29600   2.3518963e-06  0.03126954    -0.011126871   -0.0096968422   0.23914564     16.603573    
     29700   2.3513293e-06  0.03187832    -0.011174964   -0.0097241323   0.2407753      16.568183    
     29800   2.3504045e-06  0.032491798   -0.011322406   -0.0098373961   0.24456788     16.532792    
     29900   2.349277e-06   0.033109942   -0.011367807   -0.0098614152   0.24617482     16.497402    
     30000   2.3488192e-06  0.033732728   -0.011411634   -0.0098836949   0.24776318     16.462011    
Loop time of 28.0602 on 1 procs for 10000 steps with 17392 atoms

Performance: 3079096.341 tau/day, 356.377 timesteps/s, 6.198 Matom-step/s
99.6% CPU use with 1 MPI tasks x 1 OpenMP threads

MPI task timing breakdown:
Section |  min time  |  avg time  |  max time  |%varavg| %total
---------------------------------------------------------------
Pair    | 1.1054     | 1.1054     | 1.1054     |   0.0 |  3.94
Bond    | 25.528     | 25.528     | 25.528     |   0.0 | 90.98
Neigh   | 0.18108    | 0.18108    | 0.18108    |   0.0 |  0.65
Comm    | 0.042569   | 0.042569   | 0.042569   |   0.0 |  0.15
Output  | 0.012628   | 0.012628   | 0.012628   |   0.0 |  0.05
Modify  | 0.98717    | 0.98717    | 0.98717    |   0.0 |  3.52
Other   |            | 0.2029     |            |       |  0.72

Nlocal:          17392 ave       17392 max       17392 min
Histogram: 1 0 0 0 0 0 0 0 0 0
Nghost:             95 ave          95 max          95 min
Histogram: 1 0 0 0 0 0 0 0 0 0
Neighs:         102834 ave      102834 max      102834 min
Histogram: 1 0 0 0 0 0 0 0 0 0

Total # of neighbors = 102834
Ave neighs/atom = 5.9127185
Ave special neighs/atom = 13.476081
Neighbor list builds = 23
Dangerous builds = 0
Total wall time: 0:00:33
