# 3d Lennard-Jones melt with hybrid mc/md

units           lj
atom_style      atomic

lattice         fcc 0.8442
region          box block 0 10 0 10 0 10
create_box      1 box
create_atoms    1 box
mass            1 1.0

pair_style      lj/cut 2.5
pair_coeff      1 1 1.0 1.0 2.5

neighbor        0.3 bin
neigh_modify    every 2 delay 4 check yes
velocity        all create 3.0 321654 loop geom

fix             1 all hmc 100 6234 1.5 flexible

#dump           id all atom 50 dump.melt

#dump           2 all image 25 image.*.jpg type type &
#               axes yes 0.8 0.02 view 60 -30
#dump_modify    2 pad 3

#dump           3 all movie 25 movie.mpg type type &
#               axes yes 0.8 0.02 view 60 -30
#dump_modify    3 pad 3

thermo          50
thermo_style custom step temp pe ke etotal f_1 f_1[*]

run             3000
