LAMMPS (11 Feb 2026 - Development - 8e2131e345)
OMP_NUM_THREADS environment is not set. Defaulting to 1 thread.
  using 1 OpenMP thread(s) per MPI task
# MCEMC for LJ simple fluid, no dynamics

# Variables modifiable using -var command line switch
# temp:   reservoir temperature
# disp:   maximum displacement for MC moves
# lbox:   simulation box size
# ntotal: total number of particles (Ngauge + Nsimulation)
# vgauge: volume of gauge cell

variable        temp    equal 2.0       # reservoir temperature
variable        disp    equal 1.0       # maximum displacement
variable        lbox    equal 5.0       # box size
variable        ntotal  equal 80        # total particles (Ngauge + Nsimulation)
variable        vgauge  equal 1200      # volume of gauge cell

# Global model settings

units           lj
atom_style      atomic
pair_style      lj/cut 3.0
pair_modify     tail no        # turn off to avoid triggering full_energy

# Box setup

region          box block 0 ${lbox} 0 ${lbox} 0 ${lbox}
region          box block 0 5 0 ${lbox} 0 ${lbox}
region          box block 0 5 0 5 0 ${lbox}
region          box block 0 5 0 5 0 5
create_box      1 box
Created orthogonal box = (0 0 0) to (5 5 5)
  1 by 1 by 1 MPI processor grid

# Lennard-Jones parameters

pair_coeff      * * 1.0 1.0          # LJ epsilon=1.0, sigma=1.0
mass            1 1.0                 # mass for type 1

# Setup dedicated group for MCEMC

group           mcemcgroup type 1
0 atoms in group mcemcgroup

# GCMC fix with mcemc keyword
fix             mymcemc mcemcgroup gcmc 1 100 100 1 1234 ${temp} 0.0 ${disp} mcemc ${ntotal} ${vgauge}
fix             mymcemc mcemcgroup gcmc 1 100 100 1 1234 2 0.0 ${disp} mcemc ${ntotal} ${vgauge}
fix             mymcemc mcemcgroup gcmc 1 100 100 1 1234 2 0.0 1 mcemc ${ntotal} ${vgauge}
fix             mymcemc mcemcgroup gcmc 1 100 100 1 1234 2 0.0 1 mcemc 80 ${vgauge}
fix             mymcemc mcemcgroup gcmc 1 100 100 1 1234 2 0.0 1 mcemc 80 1200

# atom count

variable        type1 atom "type==1"
group           type1 dynamic mcemcgroup var type1
dynamic group type1 defined
variable        nsimulation equal count(type1)
variable        ngauge equal ${ntotal}-v_nsimulation
variable        ngauge equal 80-v_nsimulation
variable        volgauge equal ${vgauge}
variable        volgauge equal 1200

# averaging
fix             ave all ave/time 1 100 100 v_nsimulation v_ngauge v_volgauge ave one file mcemc_output.dat

compute_modify  thermo_temp dynamic/dof yes

thermo_style    custom step atoms v_nsimulation v_ngauge temp press pe ke etotal
thermo          100

run             10000

CITE-CITE-CITE-CITE-CITE-CITE-CITE-CITE-CITE-CITE-CITE-CITE-CITE

Your simulation uses code contributions which should be cited:

- fix mcemc command: doi:10.1016/j.jcis.2024.06.083

@Article{Parashar,
author = {Parashar, S. and Neimark, A. V.},
title = {Understanding the Origins of Reversible and Hysteretic Pathways of  Adsorption Phase Transitions in Metal-Organic Frameworks},
journal = {Journal of Colloid And Interface Science},
year = {2024},
doi = {10.1016/j.jcis.2024.06.083},
}

CITE-CITE-CITE-CITE-CITE-CITE-CITE-CITE-CITE-CITE-CITE-CITE-CITE

WARNING: No fixes with time integration, atoms won't move
For more information see https://docs.lammps.org/err0028 (src/verlet.cpp:60)
Generated 0 of 0 mixed pair_coeff terms from geometric mixing rule
Neighbor list info ...
  update: every = 1 steps, delay = 0 steps, check = yes
  max neighbors/atom: 2000, page size: 100000
  master list distance cutoff = 3.3
  ghost atom cutoff = 3.3
  binsize = 1.65, bins = 4 4 4
  1 neighbor lists, perpetual/occasional/extra = 1 0 0
  (1) pair lj/cut, perpetual
      attributes: half, newton on
      pair build: half/bin/atomonly/newton
      stencil: half/bin/3d
      bin: standard
Per MPI rank memory allocation (min/avg/max) = 0.4341 | 0.4341 | 0.4341 Mbytes
   Step        Atoms    v_nsimulation     v_ngauge         Temp          Press          PotEng         KinEng         TotEng    
         0           0   0              80             0              0              0             -0              0            
       100          11   11             69             2.9250783      0.17759702    -0.41011172     3.9887431      3.5786314    
       200           2   2              78             1.6487279      0.012843677   -0.010876867    1.2365459      1.225669     
       300           9   9              71             4.0074684      0.22121489    -0.35728051     5.3432912      4.9860107    
       400          13   13             67             2.9483811      0.19290612    -0.56206893     4.0823739      3.5203049    
       500           7   7              73             2.4202014      0.094939482   -0.49688019     3.1116875      2.6148073    
       600           7   7              73             1.9671138      0.081058389   -0.12325898     2.5291463      2.4058873    
       700           9   9              71             1.8159945      0.12650795    -0.53737686     2.4213259      1.8839491    
       800          10   10             70             2.5684197      0.13640904    -0.48894114     3.4673666      2.9784255    
       900           7   7              73             2.1163466      0.081432268   -0.28355077     2.721017       2.4374662    
      1000           4   4              76             1.4837372      0.029360332   -0.10495801     1.6692043      1.5642463    
      1100           9   9              71             1.4082344      0.058989603   -0.52096478     1.8776459      1.3566811    
      1200           6   6              74             1.5856395      0.053453244   -0.5018469      1.9820493      1.4802024    
      1300           9   9              71             2.0482012      0.12141058    -0.23709149     2.730935       2.4938435    
      1400          15   15             65             2.6602277      0.25619343    -0.86290537     3.7243188      2.8614134    
      1500           8   8              72             2.9579893      0.2010235     -0.32284291     3.882361       3.5595181    
      1600           5   5              75             2.9689764      0.10751587    -0.34608961     3.5627717      3.2166821    
      1700           5   5              75             2.5351699      0.14171692    -0.24634566     3.0422039      2.7958583    
      1800           9   9              71             2.712623       0.21151679    -0.38737958     3.6168307      3.2294511    
      1900           8   8              72             1.8905636      0.10052836    -0.36717324     2.4813647      2.1141915    
      2000          10   10             70             1.8886286      0.11053855    -0.44973584     2.5496486      2.0999127    
      2100           6   6              74             1.0713969      0.035143108   -0.082245038    1.3392461      1.257001     
      2200           8   8              72             3.7603387      0.19306552    -0.30229519     4.9354446      4.6331494    
      2300          10   10             70             1.3438833      0.13106251    -0.37542701     1.8142425      1.4388154    
      2400           8   8              72             2.6378286      0.11879834    -0.25720073     3.46215        3.2049493    
      2500           6   6              74             2.1848364      0.063489015   -0.44261174     2.7310455      2.2884338    
      2600           6   6              74             1.2259921      0.032891916   -0.27248195     1.5324902      1.2600082    
      2700          11   11             69             2.7870936      0.16719898    -0.48395463     3.8005821      3.3166275    
      2800          11   11             69             1.9417755      0.09275575    -0.51739517     2.6478757      2.1304805    
      2900           7   7              73             2.0179589      0.078082025   -0.44628619     2.5945186      2.1482324    
      3000           5   5              75             2.4527896      0.083095077   -0.22142599     2.9433475      2.7219215    
      3100           9   9              71             2.1394206      0.14771268    -0.48313743     2.8525608      2.3694233    
      3200           8   8              72             2.1578611      0.084646472   -0.37835297     2.8321928      2.4538398    
      3300           8   8              72             1.9648442      0.13649398    -0.28933331     2.5788581      2.2895248    
      3400          11   11             69             1.8036772      0.15580287    -0.5658307      2.4595598      1.8937291    
      3500          10   10             70             2.444327       0.13684984    -0.37613744     3.2998415      2.923704     
      3600           8   8              72             2.2835139      0.087255959   -0.42498677     2.997112       2.5721252    
      3700           9   9              71             2.1375896      0.12390403    -0.6133586      2.8501195      2.2367609    
      3800          14   14             66             2.1492208      0.1296286     -0.66262488     2.9935575      2.3309327    
      3900           6   6              74             3.211808       0.1421578     -0.18773597     4.01476        3.827024     
      4000          15   15             65             1.6583985      0.15664223    -0.63492868     2.3217579      1.6868292    
      4100           4   4              76             1.3984391      0.025885161   -0.48257033     1.573244       1.0906737    
      4200          12   12             68             2.7186384      0.18018106    -0.49261056     3.7381278      3.2455172    
      4300           9   9              71             2.2319002      0.10232165    -0.41888733     2.975867       2.5569796    
      4400          11   11             69             1.963178       0.19454101    -0.86086068     2.6770609      1.8162002    
      4500          14   14             66             1.8404437      0.1548765     -0.52203034     2.5634751      2.0414448    
      4600          13   13             67             2.2097931      0.4503796     -0.26358752     3.0597135      2.796126     
      4700          11   11             69             2.0158091      0.15966382    -0.45997243     2.7488305      2.2888581    
      4800          11   11             69             1.5515161      0.18493093    -0.37909961     2.1157037      1.7366041    
      4900          10   10             70             3.6045886      0.20315174    -0.52297969     4.8661946      4.3432149    
      5000           6   6              74             3.1736151      0.098705836   -0.66403526     3.9670189      3.3029837    
      5100           9   9              71             1.8245084      0.1040695     -0.57589198     2.4326779      1.8567859    
      5200           9   9              71             1.8883687      0.073834955   -0.38354913     2.517825       2.1342758    
      5300          10   10             70             3.3337889      0.18150848    -0.51294991     4.500615       3.9876651    
      5400          14   14             66             1.9080261      0.25197963    -0.62206785     2.6576077      2.0355399    
      5500           8   8              72             2.8440873      0.12700679    -0.29593243     3.7328645      3.4369321    
      5600           6   6              74             2.3813674      0.089166088   -0.064271764    2.9767093      2.9124375    
      5700          11   11             69             1.903466       0.13462295    -0.30825081     2.5956354      2.2873846    
      5800          13   13             67             2.9319193      0.22969167    -0.76119542     4.0595805      3.2983851    
      5900           9   9              71             2.1831756      0.095688943   -0.40998527     2.9109008      2.5009155    
      6000          10   10             70             2.3260076      0.15133337    -0.37367709     3.1401102      2.7664331    
      6100           6   6              74             1.8955721      0.063660781   -0.2152291      2.3694651      2.154236     
      6200           7   7              73             2.1883136      0.086030927   -0.19925764     2.8135461      2.6142885    
      6300          10   10             70             2.1907109      0.11034039    -0.76911827     2.9574598      2.1883415    
      6400           5   5              75             2.6351116      0.18910898     0.1384244      3.1621339      3.3005583    
      6500          13   13             67             2.3855476      0.16069259    -0.42008055     3.3030658      2.8829853    
      6600           8   8              72             3.2858138      0.15414164    -0.32198144     4.3126306      3.9906492    
      6700          13   13             67             2.2984197      0.22240357    -0.40445423     3.1824273      2.777973     
      6800           5   5              75             3.1824571      0.10781489    -0.30058733     3.8189485      3.5183611    
      6900           8   8              72             1.9519074      0.18990986    -0.25875922     2.5618785      2.3031193    
      7000           6   6              74             2.676863       0.091120227   -0.26721045     3.3460787      3.0788682    
      7100           6   6              74             1.3564855      0.10461714    -0.24184447     1.6956068      1.4537623    
      7200           7   7              73             2.1806097      0.075152315   -0.44987141     2.8036411      2.3537697    
      7300           9   9              71             3.16761        0.44018711     0.31478636     4.22348        4.5382664    
      7400           8   8              72             2.3083948      0.1011003     -0.26890229     3.0297682      2.7608659    
      7500           8   8              72             2.6129993      0.12581216    -0.42568141     3.4295616      3.0038802    
      7600          10   10             70             1.9140361      0.09366107    -0.35451961     2.5839488      2.2294292    
      7700           9   9              71             1.9356742      0.083056392   -0.42981898     2.580899       2.15108      
      7800           7   7              73             2.039773       0.070115933   -0.29259515     2.6225652      2.3299701    
      7900          12   12             68             2.2067756      0.13949187    -0.41411903     3.0343164      2.6201974    
      8000          11   11             69             2.0466394      0.11389531    -0.52560264     2.7908719      2.2652693    
      8100           6   6              74             2.6991033      0.10635143    -0.2196889      3.3738791      3.1541902    
      8200           8   8              72             1.2644391      0.049457103   -0.34039288     1.6595763      1.3191834    
      8300           8   8              72             1.7271995      0.16099949    -0.35955429     2.2669494      1.9073951    
      8400          10   10             70             2.0691314      0.099678726   -0.45268239     2.7933274      2.340645     
      8500          12   12             68             1.4384236      0.09124561    -0.58141318     1.9778325      1.3964193    
      8600           7   7              73             2.446883       0.14504841    -0.30867424     3.1459924      2.8373182    
      8700           9   9              71             1.6792541      0.14251431    -0.42134109     2.2390055      1.8176644    
      8800          10   10             70             2.6549229      0.15553188    -0.49078425     3.5841459      3.0933616    
      8900          10   10             70             2.6258466      0.14591166    -0.31831421     3.5448929      3.2265786    
      9000           8   8              72             2.0295704      0.10244446    -0.5060114      2.6638112      2.1577998    
      9100          12   12             68             1.5700254      0.075546388   -0.97091029     2.158785       1.1878747    
      9200          14   14             66             2.1718565      0.26669484    -0.57945542     3.0250859      2.4456305    
      9300           4   4              76             4.1165764      0.094498391   -0.068720683    4.6311485      4.5624278    
      9400          10   10             70             2.2899302      0.30398398    -0.23224617     3.0914057      2.8591596    
      9500          17   17             63             1.6968194      0.13934997    -0.74109802     2.3955097      1.6544117    
      9600           6   6              74             1.5791197      0.057341857   -0.44547682     1.9738996      1.5284227    
      9700           6   6              74             2.2481115      0.072041745   -0.21934524     2.8101393      2.5907941    
      9800           8   8              72             2.1246997      0.086870927   -0.45234104     2.7886683      2.3363273    
      9900          11   11             69             1.7477313      0.078864875   -0.45870258     2.3832699      1.9245673    
     10000           8   8              72             2.5054616      0.091590191   -0.55727101     3.2884183      2.7311473    
Loop time of 11.5264 on 1 procs for 10000 steps with 8 atoms

Performance: 374793.139 tau/day, 867.577 timesteps/s, 6.941 katom-step/s
95.7% CPU use with 1 MPI tasks x 1 OpenMP threads

MPI task timing breakdown:
Section |  min time  |  avg time  |  max time  |%varavg| %total
---------------------------------------------------------------
Pair    | 0.040927   | 0.040927   | 0.040927   |   0.0 |  0.36
Neigh   | 0.12506    | 0.12506    | 0.12506    |   0.0 |  1.09
Comm    | 0.056438   | 0.056438   | 0.056438   |   0.0 |  0.49
Output  | 0.0073633  | 0.0073633  | 0.0073633  |   0.0 |  0.06
Modify  | 11.279     | 11.279     | 11.279     |   0.0 | 97.85
Other   |            | 0.01794    |            |       |  0.16

Nlocal:              8 ave           8 max           8 min
Histogram: 1 0 0 0 0 0 0 0 0 0
Nghost:             88 ave          88 max          88 min
Histogram: 1 0 0 0 0 0 0 0 0 0
Neighs:             36 ave          36 max          36 min
Histogram: 1 0 0 0 0 0 0 0 0 0

Total # of neighbors = 36
Ave neighs/atom = 4.5
Neighbor list builds = 10000
Dangerous builds = 0
Total wall time: 0:00:11
