LAMMPS (2 Sep 2026)
Processor partition = 0
OMP_NUM_THREADS environment is not set. Defaulting to 1 thread.
  using 1 OpenMP thread(s) per MPI task
# 3d Lennard-Jones melt to vapor-liquid mixture GEMC
# mpirun -np 5 ./lmp -in in.gemc.lj -p 1 4

variable        temp index 1.0
variable        ntranslate index 10
variable        nexchange index 10
variable        nvolume index 10
variable        displace index 0.5
variable        max_dlogvolratio index 0.5
variable        nsteps index 10000

units           lj
atom_style      atomic

# initialize gas state in partition 1

partition       yes 1 lattice fcc 0.05
lattice fcc 0.05
Lattice spacing in x,y,z = 4.3088694 4.3088694 4.3088694
partition       yes 1 region box block 0 1 0 1 0 1
region box block 0 1 0 1 0 1

# initialize liquid state in partition 2

partition       yes 2 lattice fcc 0.6
partition       yes 2 region box block 0 3 0 3 0 3

create_box      1 box
Created orthogonal box = (0 0 0) to (4.3088694 4.3088694 4.3088694)
  1 by 1 by 1 MPI processor grid
create_atoms    1 box
Created 4 atoms
  using lattice units in orthogonal box = (0 0 0) to (4.3088694 4.3088694 4.3088694)
  create_atoms CPU = 0.000 seconds
mass            1 1.0

velocity        all create 3.0 87287 loop geom

pair_style      lj/cut 2.5
pair_coeff      1 1 1.0 1.0 2.5

neighbor        0.3 bin
neigh_modify    every 1 delay 5 check yes

fix             1 all nve

thermo          50
thermo_style    custom step temp pe etotal press vol atoms density
run             250
Generated 0 of 0 mixed pair_coeff terms from geometric mixing rule
Neighbor list info ...
  update: every = 1 steps, delay = 5 steps, check = yes
  max neighbors/atom: 2000, page size: 100000
  master list distance cutoff = 2.8
  ghost atom cutoff = 2.8
  binsize = 1.4, bins = 4 4 4
  1 neighbor lists, perpetual/occasional/extra = 1 0 0
  (1) pair lj/cut, perpetual
      attributes: half, newton on
      pair build: half/bin/atomonly/newton
      stencil: half/bin/3d
      bin: standard
Per MPI rank memory allocation (min/avg/max) = 3.059 | 3.059 | 3.059 Mbytes
   Step          Temp          PotEng         TotEng         Press          Volume        Atoms       Density    
         0   3              0              3.375          0.1125         80                     4   0.05         
        50   3.0165043     -0.026598173    3.3669691      0.11051182     80                     4   0.05         
       100   3.0488308     -0.071119653    3.358815       0.10745073     80                     4   0.05         
       150   3.1012973     -0.12610199     3.3628575      0.10509185     80                     4   0.05         
       200   3.2255871     -0.27398268     3.3548028      0.14486233     80                     4   0.05         
       250   3.1160493     -0.15079937     3.354756       0.10385735     80                     4   0.05         
Loop time of 0.00026116 on 1 procs for 250 steps with 4 atoms

Performance: 413539592.587 tau/day, 957267.575 timesteps/s, 3.829 Matom-step/s
98.8% CPU use with 1 MPI tasks x 1 OpenMP threads

MPI task timing breakdown:
Section |  min time  |  avg time  |  max time  |%varavg| %total
---------------------------------------------------------------
Pair    | 2.5774e-05 | 2.5774e-05 | 2.5774e-05 |   0.0 |  9.87
Neigh   | 4.2442e-05 | 4.2442e-05 | 4.2442e-05 |   0.0 | 16.25
Comm    | 7.4327e-05 | 7.4327e-05 | 7.4327e-05 |   0.0 | 28.46
Output  | 1.6751e-05 | 1.6751e-05 | 1.6751e-05 |   0.0 |  6.41
Modify  | 2.4432e-05 | 2.4432e-05 | 2.4432e-05 |   0.0 |  9.36
Other   |            | 7.743e-05  |            |       | 29.65

Nlocal:              4 ave           4 max           4 min
Histogram: 1 0 0 0 0 0 0 0 0 0
Nghost:             52 ave          52 max          52 min
Histogram: 1 0 0 0 0 0 0 0 0 0
Neighs:              7 ave           7 max           7 min
Histogram: 1 0 0 0 0 0 0 0 0 0

Total # of neighbors = 7
Ave neighs/atom = 1.75
Neighbor list builds = 31
Dangerous builds = 0
unfix           1

velocity        all create 0.0 87287 loop geom

#   args: nevery ntranslate nexchange nvolume box_temp displace max_dlogvolratio seed
fix              2 all gemc 1 ${ntranslate} ${nexchange} ${nvolume} ${temp} ${displace} ${max_dlogvolratio} 29494
fix              2 all gemc 1 10 ${nexchange} ${nvolume} ${temp} ${displace} ${max_dlogvolratio} 29494
fix              2 all gemc 1 10 10 ${nvolume} ${temp} ${displace} ${max_dlogvolratio} 29494
fix              2 all gemc 1 10 10 10 ${temp} ${displace} ${max_dlogvolratio} 29494
fix              2 all gemc 1 10 10 10 1.0 ${displace} ${max_dlogvolratio} 29494
fix              2 all gemc 1 10 10 10 1.0 0.5 ${max_dlogvolratio} 29494
fix              2 all gemc 1 10 10 10 1.0 0.5 0.5 29494

variable        mydensity equal density
fix             3 all ave/time 1 50 50 v_mydensity ave window 20
thermo_style    custom step temp pe etotal press vol atoms density f_3

run             ${nsteps}
run             10000
WARNING: No fixes with time integration, atoms won't move
For more information see https://docs.lammps.org/err0028 (src/verlet.cpp:60)
Generated 0 of 0 mixed pair_coeff terms from geometric mixing rule
0 atoms in group FixGEMC:gemc_exclusion_group:2
Per MPI rank memory allocation (min/avg/max) = 3.059 | 3.059 | 3.059 Mbytes
   Step          Temp          PotEng         TotEng         Press          Volume        Atoms       Density          f_3      
       250   0             -0.15079937    -0.15079937    -0.012994499    80                     4   0.05           0            
       300   1.0274763     -0.097634728    1.4435797      0.036901226    68.29162               3   0.043929255    0.031590203  
       350   0.37802983     0              0.85056711     0.015389005    73.694787              2   0.027138962    0.02946069   
       400   0.23210585     0              0.52223816     0.008650932    80.490467              2   0.024847663    0.021759243  
       450   0.3919345     -0.35097617     0.53087644     0.0023369494   78.839733              2   0.02536792     0.021220432  
       500   0.59030023    -0.029454476    1.298721       0.01799367     91.922799              2   0.021757388    0.020405783  
       550   0.47825476    -0.033007834    1.0430654      0.015813217    82.525084              2   0.024235056    0.019673168  
       600   0              0              0              0              88.846663              0   0              0.018222522  
       650   0.58605481     0              2.6372467      0.019463236    90.332584              1   0.011070203    0.018666604  
       700   0.54510733     0              1.2264915      0.019054731    85.822361              2   0.02330395     0.018600147  
       750   1.1207429     -0.2393537      0.76931488     0.018693923    84.615014              5   0.059091168    0.020661835  
       800   3.4903289     -0.52392811     1.4393819      0.051874055    87.755655              8   0.091162216    0.027309599  
       850   1.9512406     -0.10708136     1.6490352      0.2854754      78.374475              5   0.06379628     0.03241509   
       900   0.59757281    -0.32453712     0.5718221      0.035599437    71.575746              3   0.041913639    0.033914944  
       950   0.39814905    -0.055088382    0.84074699     0.012962899    75.640671              2   0.026440802    0.032773119  
      1000   3.5284495     -0.7756886      0.98853616     0.07641958     78.827038              9   0.11417402     0.035169456  
      1050   1.8532136     -1.1068442      0.084507374    0.0021029451   83.569515              7   0.083762602    0.039780282  
      1100   2.3647699     -0.48823484     1.0319744      0.03634207     78.75063               7   0.088888178    0.042988259  
      1150   0.38614127     0              1.7376357      0.014033739    82.545626              1   0.012114512    0.042774786  
      1200   1.3296933     -0.017490052    1.9770498      0.045852628    84.724422              3   0.035408917    0.041552374  
      1250   0.4411683      0              1.9852574      0.015719697    84.194046              1   0.011877324    0.041310946  
      1300   0.11398169     0              0.51291759     0.0041519073   82.358548              1   0.01214203     0.041002167  
      1350   0.16717178     0              0.75227303     0.0068320853   73.405897              1   0.013622884    0.041008243  
      1400   0              0              0              0              73.837438              0   0              0.041486128  
      1450   0.29317495    -0.013293702    0.64634993     0.010029581    82.427001              2   0.024263894    0.042946323  
      1500   0.14953656     0              0.67291451     0.0053736794   83.482776              1   0.011978519    0.043430785  
      1550   0.14726878     0              0.6627095      0.005115483    86.366494              1   0.011578564    0.043154882  
      1600   0.84203595    -0.42233664     0.84071729     0.0072114798   100.07127              3   0.029978634    0.04352008   
      1650   2.0321386     -0.18197033     1.3421336      0.0437272      93.668094              6   0.064055964    0.044447946  
      1700   1.5005934     -0.096076341    1.2544578      0.036673039    97.525862              5   0.051268452    0.04624353   
      1750   0.93541188    -0.0069866737   1.3961312      0.03067809     90.114397              3   0.033291018    0.046502309  
      1800   0.23301012    -0.026286559    0.32322862     0.0059657871   91.063189              3   0.032944157    0.04350783   
      1850   0.23301012    -0.1332717      0.21624347     9.906276e-06   91.447191              3   0.032805819    0.040678213  
      1900   0.45720222    -0.0081909603   1.020514       0.014256537    93.92029               2   0.021294653    0.038666538  
      1950   1.5218683     -0.60500029     1.1071015      0.0081737582   96.24334               4   0.041561317    0.039136652  
      2000   1.2254688     -0.10846262     2.6488423      0.032744701    99.834325              2   0.02003319     0.037210318  
      2050   0.4559755      0              2.0518898      0.015616275    87.596207              1   0.011416019    0.032713532  
      2100   1.8430888     -0.39153418     0.99078243     0.071486456    99.320446              6   0.060410522    0.03001566   
      2150   1.6077255     -0.41509342     0.79070073     0.017663331    103.42134              6   0.058015105    0.031659681  
      2200   1.5722141     -0.43758437     0.74157619     0.0072382478   102.20566              6   0.058705162    0.033443998  
      2250   1.2705196     -0.20592297     0.74696673     0.014771178    106.33581              6   0.056425018    0.034895416  
      2300   1.1987494     -0.22976611     0.84910832     0.016369815    93.166643              5   0.053667277    0.03646697   
      2350   1.8160251     -0.22807789     1.1339409      0.031856653    93.410552              6   0.064232572    0.037980541  
      2400   1.8443262     -0.5180632      0.86518145     0.0021970461   102.18848              6   0.058715034    0.040565973  
      2450   0.54575049     0              1.2279386      0.016667905    98.22779               2   0.020360837    0.040418193  
      2500   0              0              0              0              89.219183              0   0              0.039468314  
      2550   0              0              0              0              92.045861              0   0              0.039648044  
      2600   0.58852029     0              2.6483413      0.018678178    94.525325              1   0.010579175    0.038977261  
      2650   0.92858744     0              4.1786435      0.02869952     97.066514              1   0.010302214    0.038046241  
      2700   0.014921226    0              0.067145515    0.00047960994  93.333504              1   0.010714266    0.036574883  
      2750   0.34352675    -0.3144253      0.20086481     0.025546515    97.923477              3   0.030636167    0.035476167  
      2800   0.45867046    -0.024558665    0.4914456      0.010782783    109.60984              4   0.036493075    0.035547445  
      2850   0.99222635    -0.21397391     0.53019585     0.0077659024   93.537488              6   0.064145404    0.036691098  
      2900   0.94087787    -0.50813659     0.55035101     0.011393736    95.205736              4   0.042014275    0.03823608   
      2950   0.16964194     0              0.76338871     0.0053645208   94.868829              1   0.01054087     0.038053459  
      3000   0.3201549      0              0.72034853     0.010375534    92.570148              2   0.021605237    0.037344736  
      3050   1.2268854     -0.30584887     0.61431519     0.0088206263   100.68171              6   0.059593745    0.038383978  
      3100   2.1369918     -0.29948676     1.3032571      0.044100221    98.985172              6   0.060615139    0.039059454  
      3150   2.0609583     -0.29903122     1.2466875      0.033888164    103.61793              6   0.057905036    0.038253555  
      3200   2.396156      -0.57049754     0.96988846     0.033795834    98.896649              7   0.070780963    0.038560059  
      3250   2.4318704     -0.80829842     1.0156044      0.046064687    93.843011              6   0.063936567    0.038327393  
      3300   2.6839608     -0.32685051     2.6926054      0.15443263     101.97559              4   0.039225075    0.038284494  
      3350   2.2018722     -0.11631178     2.3607944      0.061174994    93.588429              4   0.042740327    0.037521525  
      3400   0.93513649     0              4.2081142      0.029228424    95.982235              1   0.010418595    0.035408818  
      3450   0.77504187     0              1.7438442      0.023793488    97.72109               2   0.020466411    0.033747775  
      3500   1.2320727     -0.28876812     1.5593409      0.026515203    96.801726              3   0.030991183    0.034732575  
      3550   0.94041896    -0.02903225     1.3815962      0.028828167    91.914246              3   0.032639119    0.035813558  
      3600   0.60846586    -0.20752316     0.47700093     0.0082312983   92.372714              4   0.043302831    0.037695806  
      3650   1.1942016     -0.50807142     0.83540534     0.024806362    87.719471              4   0.04559991     0.038639002  
      3700   1.101004      -0.17746062     0.6482924      0.014623857    93.026331              6   0.064497868    0.040055536  
      3750   3.2012587     -0.70048746     1.1002206      0.061364545    93.480948              8   0.085578935    0.042617974  
      3800   2.2204408     -0.7229998      0.94233079     0.0096928192   102.97655              6   0.058265691    0.044771949  
      3850   2.2105142     -0.84005493     0.81783076     0.053542008    97.770724              6   0.061368064    0.044837722  
      3900   2.639687      -0.41511853     1.0697054      0.027823562    96.830159              8   0.082618887    0.04645974   
      3950   1.2852972     -0.37560754     1.0703519      0.032290716    91.072778              4   0.043920918    0.048070725  
      4000   0.55465971    -0.088426778    0.74356279     0.01202952     96.395484              3   0.03112179     0.049009977  
      4050   0.66627726    -0.029206899    1.4699169      0.020231839    93.06628               2   0.021490061    0.048711126  
      4100   0              0              0              0              85.45899               0   0              0.047082206  
      4150   0.10337189     0              0.46517352     0.0034699264   89.37241               1   0.011189135    0.045103997  
      4200   0.89463629    -0.020278816    1.9926528      0.02988992     87.1074                2   0.022960162    0.042865288  
      4250   0.074093104    0              0.33341897     0.0024293957   91.495722              1   0.010929473    0.04110893   
      4300   0.04389057     0              0.19750757     0.001461245    90.109265              1   0.011097638    0.039034063  
      4350   0.84822034    -0.35093064     0.92139987     0.0082131834   98.374337              3   0.030495758    0.038139757  
      4400   1.5010703     -0.088657921    2.1629475      0.040462912    98.78868               3   0.030367852    0.03796888   
      4450   0.29227973     0              1.3152588      0.0093325823   93.954616              1   0.010643437    0.038498659  
      4500   0.84992301    -0.51223613     0.12520613    -0.021226193    90.698426              6   0.066153298    0.039134866  
      4550   0.27239824    -0.1900621      0.21853526    -0.00138418     86.286455              3   0.034767913    0.039402415  
      4600   0.50808227    -0.024029167    0.73809424     0.013900927    99.379797              3   0.030187222    0.038977985  
      4650   0.33423017    -0.15995627     0.59206162     0.0042636424   99.526109              2   0.02009523     0.038322925  
      4700   0.11309445    -0.33352229    -0.079059768    0.044817453    88.786765              2   0.02252588     0.036636594  
      4750   1.2249299      0              2.7560924      0.041458366    88.638077              2   0.022563666    0.034325467  
      4800   1.9516193     -0.050576153    2.1449956      0.059239479    92.111018              4   0.043425858    0.032121932  
      4850   1.4136807     -0.81963325     0.24062725     0.032616873    90.683983              6   0.066163834    0.031720566  
      4900   2.0349125     -0.75213867     0.26531757    -0.024791078    91.795763              9   0.098043741    0.031998195  
      4950   2.5744478     -0.76903858     0.19637936    -0.0045311711   100.27431             12   0.11967173     0.0344201    
      5000   2.6115337     -1.4000269     -0.42070181     0.096699298    98.34111              12   0.12202425     0.038776139  
      5050   3.5241385     -1.1421479     -0.084906384    0.020779736    110.30128             15   0.13599117     0.043128604  
      5100   3.4894408     -0.86446046     0.18237179    -0.07907952     111.39617             15   0.13465454     0.048812997  
      5150   4.4756675     -0.92700745     0.33177403     0.061581071    107.56693             16   0.14874461     0.054603477  
      5200   2.7940216     -0.86844594     0.098715366    0.12142847     110.0878              13   0.11808756     0.060057699  
      5250   3.5681338     -0.88266794     0.45538224     0.18196707     105.3317              12   0.11392582     0.064239844  
      5300   3.6006901     -0.82794881     0.79236172     0.050185566    99.322306             10   0.10068232     0.068359854  
      5350   3.7270004     -0.39374915     1.469751       0.19765469     99.319664              9   0.090616497    0.071351128  
      5400   2.2716363     -0.53119878     0.74659665     0.014193458    97.927043              8   0.08169347     0.074699884  
      5450   2.1419073     -0.82041963     0.38440323     0.002384248    97.899116              8   0.081716775    0.077709487  
      5500   1.7884464     -0.47909568     0.41512754     0.019804297    98.849772              9   0.091047251    0.080420339  
      5550   1.2498787     -0.35293245     0.45056103     0.026732047    100.39139              7   0.069727098    0.082274513  
      5600   1.7608421     -0.53348891     0.34693216    -0.010134827    103.43324              9   0.087012648    0.084105563  
      5650   1.1624323     -0.27539037     0.7707987      0.047595911    97.208143              5   0.05143602     0.085732257  
      5700   1.5869662     -0.73293053     1.6475188      0.032919438    98.601989              3   0.03042535     0.086837166  
      5750   1.7377733     -0.36565198     1.198344       0.024629005    91.678912              5   0.054538169    0.087248688  
      5800   0.69143087     0.43955767     1.476704       0.18350588     98.39964               3   0.030487916    0.088007325  
      5850   0.94355483    -0.3037965      0.75770268     0.0088597643   92.834746              4   0.043087316    0.08741782   
      5900   0.39025899    -0.45125197     0.42683076     0.032890664    85.426539              2   0.023411928    0.085307723  
      5950   0.68360776    -0.53267363     0.49273802    -0.00021882779  86.610146              3   0.034637974    0.081946926  
      6000   1.118484      -0.34533044     0.66130517     0.023692523    88.152592              5   0.056719829    0.078401779  
      6050   0.19407494    -0.03338351     0.4032851      0.0046338871   97.325927              2   0.020549509    0.074390198  
      6100   0.2560568     -0.27144144     0.11264375    -0.0021955378   96.892397              3   0.030962182    0.068880191  
      6150   0.16660769    -0.022052608    0.35281469     0.0044195138   93.360343              2   0.021422372    0.06377234   
      6200   1.4430143     -0.20763952     0.8746212      0.020359633    100.19403              6   0.059883805    0.059703516  
      6250   2.1914239     -0.17317579     2.2921761      0.054116321    98.867652              4   0.040458127    0.056031526  
      6300   1.6806743     -0.73846134     1.1522972      0.075514237    96.580949              4   0.041416035    0.052447936  
      6350   1.7194129     -0.079375605    2.4997437      0.051243304    91.686183              3   0.032720307    0.049999723  
      6400   1.0866153     -0.038753451    1.1836887      0.032576343    90.680625              4   0.044110856    0.047870678  
      6450   1.5854559     -0.18783109     1.0012608      0.032626492    91.538605              6   0.065546116    0.046635922  
      6500   0.55682403     0              2.5057081      0.018170888    91.931231              1   0.010877696    0.044070505  
      6550   1.0186407     -0.016146088    2.2757954      0.03391566     88.21493               2   0.022671899    0.04084358   
      6600   0.69799765     0              3.1409894      0.023583238    88.791581              1   0.011262329    0.038556806  
      6650   1.357905      -0.68046461     0.84717849     0.01770839     92.178517              4   0.043394059    0.037339026  
      6700   0.85516944    -0.28896191     0.67310371     0.019741893    92.670546              4   0.04316366     0.037490808  
      6750   2.2118944     -0.70498065     0.71695146     0.034199926    91.644754              7   0.076381895    0.038796884  
      6800   1.2417313     -0.466958       0.92998971     0.0078747765   96.013539              4   0.041660791    0.038963578  
      6850   2.1185926     -0.18706364     2.196353       0.055010508    96.624091              4   0.041397543    0.039260083  
      6900   0.97601409    -0.004983153    1.0930327      0.028048918    102.97644              4   0.038843837    0.039618541  
      6950   1.2067007     -0.36596194     0.99157637     0.017143609    99.624929              4   0.040150593    0.039635499  
      7000   0.26203575     0              1.1791609      0.0075431565   104.21463              1   0.0095955818   0.038319585  
      7050   0.33607409    -0.022056175    0.73411054     0.0090067875   102.25539              2   0.01955887     0.037242037  
      7100   1.0471125     -0.078132225    1.4925366      0.027191431    99.230817              3   0.030232544    0.037181451  
      7150   2.0082462     -0.10704909     2.1522279      0.050682527    102.70965              4   0.038944736    0.03697416   
      7200   2.2639691     -0.30919011     1.3887867      0.048814756    104.52069              6   0.057404902    0.03734939   
      7250   2.5016637     -0.71088335     1.1653644      0.10681803     103.99452              6   0.057695349    0.03853606   
      7300   1.0211174     -0.12175331     1.0270038      0.020557128    104.35145              4   0.038332       0.039562151  
      7350   1.0211174     -0.51730049     0.63145657     0.0093863307   108.25714              4   0.036949064    0.039662539  
      7400   1.0211174     -0.30549391     0.84326315     0.009588364    106.93548              4   0.037405731    0.039229324  
      7450   1.0211174     -0.12547131     1.0232858      0.078289212    102.82378              4   0.038901509    0.038186105  
      7500   1.2763455     -0.086756438    1.3491322      0.031381875    101.44078              4   0.039431872    0.037974424  
      7550   1.7586799     -0.20247968     1.3803323      0.069197289    110.39277              5   0.045292821    0.039646928  
      7600   2.551228      -0.32670641     1.3133688      0.03961099     100.20949              7   0.069853666    0.040640189  
      7650   1.9810281     -0.12942231     1.3563487      0.045424669    97.930095              6   0.061268194    0.041800424  
      7700   1.9533166     -0.64302426     0.33363402     0.01227475     99.400049              9   0.090543215    0.043525633  
      7750   3.0962838     -0.46295863     0.93036907     0.01954714     91.771863             10   0.10896586     0.045219175  
      7800   1.5808752     -0.81662734     0.60616031     0.048709675    95.189203              5   0.052526965    0.046008916  
      7850   1.7273605     -0.13408039     1.4205441      0.042363262    92.429188              5   0.054095466    0.046370067  
      7900   1.4886817     -0.34836794     0.99144559     0.02095568     94.265546              5   0.053041649    0.046570284  
      7950   1.0931942     -0.019363693    2.4403232      0.034030197    94.119129              2   0.021249666    0.047122473  
      8000   1.0861096     -0.019095345    2.4246513      0.032992394    96.467414              2   0.02073239     0.046936078  
      8050   0.2831784      0              1.2743028      0.0090316259   94.062266              1   0.010631256    0.046984621  
      8100   0              0              0              0              91.434403              0   0              0.04617873   
      8150   0.93250085    -0.0098180512   1.3889332      0.028220978    97.056681              3   0.030909773    0.046051359  
      8200   1.4909685     -0.22397647     1.4533631      0.033085563    103.07848              4   0.038805383    0.044610412  
      8250   2.1979937     -0.32642535     1.651769       0.042932504    101.83743              5   0.049097863    0.044390465  
      8300   2.5795565     -0.40962597     2.4923751      0.06871261     102.72127              4   0.038940328    0.043841077  
      8350   3.0707819     -0.30059834     3.1540313      0.070675987    100.9238               4   0.03963386     0.044189003  
      8400   3.127828      -0.2371125      2.5779327      0.073050853    107.55508              5   0.046487811    0.044973338  
      8450   3.7931638     -0.69916198     1.1974199      0.096171705    109.67131              9   0.082063393    0.045976159  
      8500   4.540391      -0.65298106     1.2044516      0.034357645    120.01729             11   0.091653463    0.048640698  
      8550   3.2020555     -0.37114069     1.4300155      0.11223716     110.26878              8   0.072550002    0.050529216  
      8600   3.8534199     -0.76766727     0.96637167     0.031253508    103.33976             10   0.096768174    0.052724296  
      8650   3.5745964     -0.60391475     0.85842015     0.01551698     110.65474             11   0.099408305    0.055628921  
      8700   2.2346667     -0.69646566     0.14153435    -0.043752437    105.94612             12   0.11326512     0.056791205  
      8750   3.623141      -0.84506049     0.40910371     0.0062519976   109.42795             13   0.11879963     0.058164016  
      8800   2.819535      -1.1572284     -0.0037822284   0.030741923    108.4705              11   0.10141006     0.060538299  
      8850   2.1335495     -0.5394747      0.83209284     0.015943889    104.53636              7   0.066962346    0.062544749  
      8900   1.9412458     -0.29614578     1.1597886      0.028212704    110.58939              6   0.054254751    0.063006412  
      8950   2.9003428     -0.4992863      1.1321566      0.034904471    106.04092              8   0.075442576    0.063965233  
      9000   2.6600084     -0.65871326     0.53829052     0.00052349059  110.76783             10   0.090278921    0.067329632  
      9050   2.955363      -0.72110021     0.38716089     0.29632106     105.80716             12   0.11341387     0.07102354   
      9100   3.1873877     -0.92589957     0.26937081     0.099897422    102.76234             12   0.1167743      0.076749931  
      9150   3.8777226     -0.8858831      0.56826287     0.031404643    103.881               12   0.11551679     0.080927708  
      9200   3.2303677     -0.81359736     0.50791671     0.0047838591   110.15412             11   0.099860088    0.085060861  
      9250   3.7722736     -0.91167691     0.50292567     0.0065278754   110.62583             12   0.10847377     0.087850698  
      9300   3.7385894     -0.67704732     0.61707978     0.071404891    105.96498             13   0.12268204     0.091222884  
      9350   3.7500831     -1.2018796      0.0035042031   0.0067719233   110.95392             14   0.12617851     0.09471157   
      9400   4.3229042     -0.76997326     0.85111582     0.064177032    107.3472              12   0.1117868      0.097929695  
      9450   3.9328739     -0.96060793     0.64829503    -0.0077790406   110.89549             11   0.099192488    0.1001144    
      9500   2.8397824     -0.96583317     0.45405802     0.033833776    105.33095              9   0.085444973    0.099697746  
      9550   2.8731788     -0.48013087     0.95645851     0.046272157    99.062387              9   0.090851839    0.099403907  
      9600   3.3398786     -0.28633453     1.3836048      0.056417532    101.16834              9   0.088960639    0.099577294  
      9650   3.9324741     -0.39280274     1.3768106      0.26291653     108.76476             10   0.091941546    0.098144506  
      9700   3.9253255     -0.52317562     1.0826394      0.089996559    104.38674             11   0.10537737     0.097683141  
      9750   2.7517231     -0.72554712     0.51272829    -0.018156073    102.72488             10   0.097347399    0.096162341  
      9800   3.7009154     -0.80545716     0.85995479     0.0010082636   95.84526              10   0.10433484     0.096107495  
      9850   2.8943909     -0.73116259     0.57131331     0.024767975    99.729345             10   0.10027139     0.09667257   
      9900   3.1460372     -0.67482675     0.89819184     0.036853191    100.73172              9   0.08934624     0.09826607   
      9950   4.0816415     -0.70462747     1.5912959      0.040393551    96.954471              8   0.082512956    0.099081167  
     10000   4.3717396     -0.60588604     1.3613968      0.21128855     98.280993             10   0.10174907     0.099775799  
     10050   3.7679571     -0.53527604     1.3487025      0.071829748    99.693619              9   0.09027659     0.099545916  
     10100   1.8619762     -0.58145088     0.8150313      0.061456277    91.30676               6   0.065712549    0.097556024  
     10150   1.0327385     -0.31559508     1.2335127      0.16820655     87.910667              3   0.034125552    0.094940833  
     10200   0.74076983    -0.064500823    1.0466539      0.019417229    95.231449              3   0.031502198    0.090811331  
     10250   0.39276247     0              1.7674311      0.01242443     94.836339              1   0.010544481    0.086244819  
Loop time of 37.4387 on 1 procs for 10000 steps with 1 atoms

Performance: 115388.770 tau/day, 267.104 timesteps/s, 267.104 atom-step/s
92.7% CPU use with 1 MPI tasks x 1 OpenMP threads

MPI task timing breakdown:
Section |  min time  |  avg time  |  max time  |%varavg| %total
---------------------------------------------------------------
Pair    | 0.0054346  | 0.0054346  | 0.0054346  |   0.0 |  0.01
Neigh   | 0.020754   | 0.020754   | 0.020754   |   0.0 |  0.06
Comm    | 0.009004   | 0.009004   | 0.009004   |   0.0 |  0.02
Output  | 0.005874   | 0.005874   | 0.005874   |   0.0 |  0.02
Modify  | 37.373     | 37.373     | 37.373     |   0.0 | 99.83
Other   |            | 0.0242     |            |       |  0.06

Nlocal:              1 ave           1 max           1 min
Histogram: 1 0 0 0 0 0 0 0 0 0
Nghost:             17 ave          17 max          17 min
Histogram: 1 0 0 0 0 0 0 0 0 0
Neighs:              0 ave           0 max           0 min
Histogram: 1 0 0 0 0 0 0 0 0 0

Total # of neighbors = 0
Ave neighs/atom = 0
Neighbor list builds = 418421
Dangerous builds = 0
Total wall time: 0:00:37
