LAMMPS (2 Sep 2026)
Processor partition = 1
OMP_NUM_THREADS environment is not set. Defaulting to 1 thread.
  using 1 OpenMP thread(s) per MPI task
# 3d Lennard-Jones melt to vapor-liquid mixture GEMC
# mpirun -np 5 ./lmp -in in.gemc.lj -p 1 4

variable        temp index 1.0
variable        ntranslate index 10
variable        nexchange index 10
variable        nvolume index 10
variable        displace index 0.5
variable        max_dlogvolratio index 0.5
variable        nsteps index 10000

units           lj
atom_style      atomic

# initialize gas state in partition 1

partition       yes 1 lattice fcc 0.05
partition       yes 1 region box block 0 1 0 1 0 1

# initialize liquid state in partition 2

partition       yes 2 lattice fcc 0.6
lattice fcc 0.6
Lattice spacing in x,y,z = 1.8820721 1.8820721 1.8820721
partition       yes 2 region box block 0 3 0 3 0 3
region box block 0 3 0 3 0 3

create_box      1 box
Created orthogonal box = (0 0 0) to (5.6462162 5.6462162 5.6462162)
  1 by 2 by 2 MPI processor grid
create_atoms    1 box
Created 108 atoms
  using lattice units in orthogonal box = (0 0 0) to (5.6462162 5.6462162 5.6462162)
  create_atoms CPU = 0.000 seconds
mass            1 1.0

velocity        all create 3.0 87287 loop geom

pair_style      lj/cut 2.5
pair_coeff      1 1 1.0 1.0 2.5

neighbor        0.3 bin
neigh_modify    every 1 delay 5 check yes

fix             1 all nve

thermo          50
thermo_style    custom step temp pe etotal press vol atoms density
run             250
Generated 0 of 0 mixed pair_coeff terms from geometric mixing rule
Neighbor list info ...
  update: every = 1 steps, delay = 5 steps, check = yes
  max neighbors/atom: 2000, page size: 100000
  master list distance cutoff = 2.8
  ghost atom cutoff = 2.8
  binsize = 1.4, bins = 5 5 5
  1 neighbor lists, perpetual/occasional/extra = 1 0 0
  (1) pair lj/cut, perpetual
      attributes: half, newton on
      pair build: half/bin/atomonly/newton
      stencil: half/bin/3d
      bin: standard
Per MPI rank memory allocation (min/avg/max) = 3.061 | 3.061 | 3.061 Mbytes
   Step          Temp          PotEng         TotEng         Press          Volume        Atoms       Density    
         0   3             -4.1241917      0.33414167    -2.2227267      180                  108   0.6          
        50   2.196824      -2.9056637      0.35906085     4.0902344      180                  108   0.6          
       100   2.4296563     -3.2491278      0.36161142     3.0239251      180                  108   0.6          
       150   2.3933594     -3.1973246      0.35947343     2.9220808      180                  108   0.6          
       200   2.3489459     -3.1289633      0.36183139     3.38915        180                  108   0.6          
       250   2.5110637     -3.3703887      0.36133095     2.6457948      180                  108   0.6          
Loop time of 0.00501124 on 4 procs for 250 steps with 108 atoms

Performance: 21551571.464 tau/day, 49887.897 timesteps/s, 5.388 Matom-step/s
94.6% CPU use with 4 MPI tasks x 1 OpenMP threads

MPI task timing breakdown:
Section |  min time  |  avg time  |  max time  |%varavg| %total
---------------------------------------------------------------
Pair    | 0.00081382 | 0.0011154  | 0.0013809  |   0.8 | 22.26
Neigh   | 0.00069491 | 0.00083675 | 0.00094621 |   0.0 | 16.70
Comm    | 0.0024003  | 0.0027644  | 0.0032024  |   0.7 | 55.16
Output  | 3.3304e-05 | 3.5731e-05 | 3.8123e-05 |   0.0 |  0.71
Modify  | 4.6474e-05 | 6.0362e-05 | 6.9929e-05 |   0.0 |  1.20
Other   |            | 0.0001987  |            |       |  3.96

Nlocal:             27 ave          33 max          21 min
Histogram: 1 0 0 0 1 1 0 0 0 1
Nghost:            453 ave         473 max         430 min
Histogram: 1 0 1 0 0 0 0 0 0 2
Neighs:            738 ave         903 max         508 min
Histogram: 1 0 0 0 0 1 0 1 0 1

Total # of neighbors = 2952
Ave neighs/atom = 27.333333
Neighbor list builds = 40
Dangerous builds = 4
unfix           1

velocity        all create 0.0 87287 loop geom

#   args: nevery ntranslate nexchange nvolume box_temp displace max_dlogvolratio seed
fix              2 all gemc 1 ${ntranslate} ${nexchange} ${nvolume} ${temp} ${displace} ${max_dlogvolratio} 29494
fix              2 all gemc 1 10 ${nexchange} ${nvolume} ${temp} ${displace} ${max_dlogvolratio} 29494
fix              2 all gemc 1 10 10 ${nvolume} ${temp} ${displace} ${max_dlogvolratio} 29494
fix              2 all gemc 1 10 10 10 ${temp} ${displace} ${max_dlogvolratio} 29494
fix              2 all gemc 1 10 10 10 1.0 ${displace} ${max_dlogvolratio} 29494
fix              2 all gemc 1 10 10 10 1.0 0.5 ${max_dlogvolratio} 29494
fix              2 all gemc 1 10 10 10 1.0 0.5 0.5 29494

variable        mydensity equal density
fix             3 all ave/time 1 50 50 v_mydensity ave window 20
thermo_style    custom step temp pe etotal press vol atoms density f_3

run             ${nsteps}
run             10000
WARNING: No fixes with time integration, atoms won't move
For more information see https://docs.lammps.org/err0028 (src/verlet.cpp:60)
Generated 0 of 0 mixed pair_coeff terms from geometric mixing rule
0 atoms in group FixGEMC:gemc_exclusion_group:2
Per MPI rank memory allocation (min/avg/max) = 3.066 | 3.069 | 3.071 Mbytes
   Step          Temp          PotEng         TotEng         Press          Volume        Atoms       Density          f_3      
       250   0             -3.3703887     -3.3703887      1.153107       180                  108   0.6            0            
       300   0.080972771   -3.5825373     -3.4633068     -0.29236176     191.70838            109   0.56857191     0.56523857   
       350   0.13856702    -3.8128715     -3.6106897     -0.5062381      186.30521            110   0.590429       0.57894107   
       400   0.16433006    -3.9630814     -3.723309      -0.34207823     179.50953            110   0.61278083     0.58988886   
       450   0.21148638    -3.9556658     -3.647088      -0.55278742     181.16027            110   0.60719716     0.59398215   
       500   0.26699736    -4.1375117     -3.7479382      0.48558038     168.0772             110   0.65446116     0.60125176   
       550   0.26627255    -4.1121868     -3.7236709     -0.5647743      177.47492            110   0.6198059      0.60801988   
       600   0.29246746    -4.1445346     -3.7254183      0.25671933     171.15334            112   0.65438397     0.6126445    
       650   0.3218846     -4.2463221     -3.7808943     -0.20021831     169.66742            111   0.65422108     0.61641482   
       700   0.40153366    -4.0594349     -3.4735608     -0.25568153     174.17764            110   0.63153916     0.61902328   
       750   0.40331892    -4.0176302     -3.4126519     -0.31371476     175.38499            107   0.61008643     0.61936307   
       800   0.40228147    -3.776623      -3.1557944      0.49268564     172.24434            104   0.60379341     0.61660793   
       850   0.48378884    -3.6928566     -2.9671733      0.3060473      181.62552            107   0.58912424     0.61312759   
       900   0.5063899     -3.7144085     -2.968761      -0.28741423     188.42425            109   0.57848179     0.61083999   
       950   0.51909415    -3.8318671     -3.0744616     -0.0081871545   184.35933            110   0.59666088     0.60991556   
      1000   0.48872317    -3.7229682     -2.9614142     -0.17955371     181.17296            103   0.5685175      0.60833705   
      1050   0.51402031    -3.9055931     -3.1198764      0.075652609    176.43049            105   0.59513524     0.60694212   
      1100   0.55322405    -3.8401163     -2.9944739     -0.49194893     181.24937            105   0.57931236     0.60586619   
      1150   0.60638882    -3.9138716     -3.0370661      0.32840627     177.45437            111   0.6255129      0.60629674   
      1200   0.61893598    -3.95133       -3.039961       0.2793007      175.27558            109   0.62187785     0.60661248   
      1250   0.65045481    -3.8870892     -2.9465667      0.60763978     175.80595            111   0.63137793     0.60678224   
      1300   0.63679533    -4.0063948     -3.0856232      0.14944541     177.64145            111   0.62485416     0.60931944   
      1350   0.65415665    -4.0204516     -3.0745765     -0.54359981     186.5941             111   0.5948741      0.61008067   
      1400   0.59758031    -3.900381      -3.044027      -0.11787075     186.16256            112   0.60162473     0.60983383   
      1450   0.63454974    -4.0203343     -3.0944685      0.43801047     177.573              110   0.61946355     0.60897305   
      1500   0.62097876    -4.110137      -3.2122353     -0.021677919    176.51722            111   0.62883382     0.60830275   
      1550   0.61167721    -4.1950408     -3.3105886     -0.28317275     173.63351            111   0.63927754     0.60821268   
      1600   0.63302843    -4.291061      -3.3589411      0.89148663     159.92873            109   0.68155359     0.60864146   
      1650   0.60363841    -4.2113773     -3.2973776      0.032869519    166.33191            106   0.63728002     0.60893829   
      1700   0.62441735    -4.2184614     -3.2818353      0.30332849     162.47414            107   0.65856635     0.6089868    
      1750   0.62659049    -4.2112282     -3.2885881     -0.20009083     169.8856             109   0.64160822     0.61023015   
      1800   0.63716763    -4.2336266     -3.2954119     -0.31755525     168.93681            109   0.64521166     0.61306234   
      1850   0.63716763    -4.178631      -3.2404163     -0.11550777     168.55281            109   0.6466816      0.61714106   
      1900   0.68779837    -4.2799915     -3.2764311      0.027524092    166.07971            110   0.66233256     0.62082764   
      1950   0.67963227    -4.35324       -3.343231      -0.16751763     163.75666            108   0.65951516     0.6242715    
      2000   0.69819741    -4.4268451     -3.4081116      0.4463868      160.16568            110   0.68678885     0.62877402   
      2050   0.69891914    -4.1006908     -3.0900915      0.13080689     172.40379            111   0.64383734     0.63255161   
      2100   0.67121213    -4.2807172     -3.2644007     -0.074742874    160.67955            106   0.65969812     0.63560638   
      2150   0.70617644    -4.3865752     -3.3173175      0.11413999     156.57866            106   0.67697604     0.63780336   
      2200   0.71504839    -4.3802698     -3.2975786      0.17464386     157.79434            106   0.67176048     0.64089517   
      2250   0.71244292    -4.3818961     -3.30315        0.58371524     153.66419            106   0.68981589     0.64385703   
      2300   0.71690238    -4.1999345     -3.1245809     -0.43031437     166.83336            107   0.64135855     0.64668122   
      2350   0.73008969    -4.196382      -3.090916      -0.19304395     166.58945            106   0.6362948      0.64880083   
      2400   0.74221184    -4.3592638     -3.235443       0.074610019    157.81152            106   0.67168733     0.65131539   
      2450   0.78270321    -4.3694345     -3.2273994      0.36931966     161.77221            110   0.67996846     0.65531733   
      2500   0.82039281    -4.4145237     -3.2388715     -0.65947059     170.78082            112   0.65581136     0.65857292   
      2550   0.86199897    -4.3818362     -3.1465609     -0.1435501      167.95414            112   0.66684871     0.65999467   
      2600   0.85313869    -4.4799882     -3.2463958     -0.29137885     165.47468            111   0.67079751     0.66110217   
      2650   0.86539931    -4.3963672     -3.1450466      0.16863813     162.93349            111   0.68125959     0.66258242   
      2700   0.8535418     -4.3623889     -3.1282136     -0.22769502     166.6665             111   0.66600068     0.66446299   
      2750   0.82734671    -4.3152838     -3.0970347     -0.010085138    162.07652            109   0.67252183     0.66565354   
      2800   0.81297755    -4.5232528     -3.3150779      0.80790209     150.39016            108   0.71813208     0.66774273   
      2850   0.79159526    -4.1609339     -2.9623392     -0.22932204     166.46251            106   0.63678001     0.66839305   
      2900   0.82856835    -4.2968166     -3.065472      -0.19424209     164.79426            108   0.65536262     0.66859919   
      2950   0.84123769    -4.3337062     -3.117322       0.15487512     165.13117            111   0.6721929      0.66879698   
      3000   0.82342741    -4.3265344     -3.125079      -0.21228066     167.42985            110   0.65699156     0.66869761   
      3050   0.802699      -4.2856707     -3.0702632      0.41295666     159.31829            106   0.66533478     0.66891672   
      3100   0.82001934    -4.1649349     -2.9233018      0.50283876     161.01483            106   0.65832446     0.66901149   
      3150   0.83129103    -4.242805      -2.9841049      0.73840079     156.38207            106   0.67782707     0.66892252   
      3200   0.82608835    -4.236556      -2.9738209      0.17711055     161.10335            105   0.65175553     0.66822919   
      3250   0.8381859     -4.152678      -2.8835381      0.040623744    166.15699            106   0.6379509      0.66685216   
      3300   0.87325913    -4.2340782     -2.9363181      0.98872397     158.02441            108   0.6834387      0.66573503   
      3350   0.86839046    -4.1909997     -2.9004749      0.011867537    166.41157            108   0.64899333     0.66590312   
      3400   0.88828493    -4.4143721     -3.1299601      0.045768643    164.01776            111   0.67675596     0.66664198   
      3450   0.86918147    -4.3969748     -3.12876        0.11233036     162.27891            110   0.67784532     0.66736064   
      3500   0.86666754    -4.3239098     -3.0477617      0.17131428     163.19827            109   0.66789922     0.66704374   
      3550   0.86124925    -4.1821438     -2.913974      -0.047780073    168.08575            109   0.64847852     0.66649372   
      3600   0.86579651    -4.1670127     -2.8803429      0.049942909    167.62729            108   0.64428652     0.66553652   
      3650   0.89248759    -4.0902978     -2.7639621     -0.20207434     172.28053            108   0.62688454     0.66392454   
      3700   0.89732926    -4.117182      -2.7584901     -0.16257615     166.97367            106   0.63483063     0.66209664   
      3750   0.87551172    -4.0551127     -2.7039624     -0.056947612    166.51905            104   0.62455316     0.66066434   
      3800   0.88421043    -4.210312      -2.8714839      0.7446658      157.02345            106   0.67505842     0.65863956   
      3850   0.85651979    -4.1918448     -2.8949445     -0.054995036    162.22928            106   0.65339624     0.65844155   
      3900   0.85621578    -4.1105213     -2.7891499      0.041276707    163.16984            104   0.63737269     0.65824355   
      3950   0.89706685    -4.1176383     -2.7844973     -0.048300871    168.92722            108   0.63932858     0.65697052   
      4000   0.89982533    -4.1992946     -2.8743224      0.77615995     163.60452            109   0.66624078     0.65565946   
      4050   0.90544542    -4.240233      -2.9191058      0.32614415     166.93372            110   0.65894416     0.65482413   
      4100   0.92607603    -4.2041212     -2.8770211     -0.12160856     174.54101            112   0.64168301     0.654652     
      4150   0.9082346     -4.1172359     -2.8039778      0.32260645     170.62759            111   0.65053958     0.65424451   
      4200   0.90434962    -4.1098891     -2.7903608     -0.058557301    172.8926             110   0.63623313     0.65310355   
      4250   0.93905112    -4.2263744     -2.8685572      0.40340258     168.50428            111   0.65873698     0.65303158   
      4300   0.93705231    -4.3048965     -2.9499695      0.058319535    169.89073            111   0.65336112     0.65242457   
      4350   0.90877602    -4.2334793     -2.8953275      1.2034597      161.62566            109   0.67439785     0.65218553   
      4400   0.90683326    -4.2632201     -2.9279289      0.83657834     161.21132            109   0.67613118     0.65117511   
      4450   0.93477093    -4.3111836     -2.9595553      0.31344914     166.04538            111   0.66849193     0.65021241   
      4500   0.90927309    -4.1882125     -2.8114357     -0.17058494     169.30157            106   0.62610168     0.64873463   
      4550   0.93050128    -4.1461592     -2.7760174     -0.1941982      173.71354            109   0.62746978     0.64831731   
      4600   0.92919761    -4.4096906     -3.0414684      0.15951014     160.6202             109   0.67861949     0.64868524   
      4650   0.95526832    -4.4216147     -3.0277914      0.61101806     160.47389            110   0.68546976     0.64988124   
      4700   0.94770835    -4.21883       -2.8360374     -0.29473014     171.21324            110   0.64247369     0.65083673   
      4750   0.93328309    -4.1141235     -2.7523786      0.24632737     171.36192            110   0.64191623     0.65143885   
      4800   0.90240351    -4.0943474     -2.7532755      0.48010024     167.88898            108   0.64328224     0.65087938   
      4850   0.91561943    -3.8534579     -2.4670719      0.71953183     169.31602            106   0.62604827     0.64887492   
      4900   0.91110896    -3.9228518     -2.503114       0.059640454    168.20424            103   0.6123508      0.6468866    
      4950   0.90101041    -4.0570435     -2.6109218      0.010000546    159.72569            100   0.62607334     0.64627537   
      5000   0.87981575    -4.0820278     -2.6699236     -0.70547613     161.65889            100   0.61858646     0.64597004   
      5050   0.85436567    -4.2095652     -2.7958983      0.033473498    149.69872             97   0.64796812     0.64629509   
      5100   0.85354594    -4.2394271     -2.8271165      0.16972511     148.60383             97   0.65274226     0.64671617   
      5150   0.8577168     -4.1316968     -2.6977016     -0.15358223     152.43307             96   0.62978458     0.64650481   
      5200   0.87660397    -4.1903058     -2.7691448      0.30192813     149.9122              99   0.66038654     0.64747507   
      5250   0.87340329    -4.0426667     -2.6408545      0.56998959     154.6683             100   0.64654489     0.64777045   
      5300   0.90649783    -4.1076161     -2.6812151      0.20221158     160.67769            102   0.6348112      0.64792071   
      5350   0.93988708    -4.0704777     -2.6058964      0.29055799     160.68034            103   0.6410243      0.64755911   
      5400   0.95749811    -4.180659      -2.7029816     -0.051441882    162.07296            104   0.64168633     0.64723157   
      5450   0.9481784     -4.1727082     -2.7094136     -0.084153789    162.10088            104   0.64157577     0.64673932   
      5500   0.92586586    -4.0457393     -2.6030065      0.46314032     161.15023            103   0.63915516     0.64659253   
      5550   0.95328944    -4.1831181     -2.7259471      0.40779841     159.60861            105   0.65785923     0.64609074   
      5600   0.91448773    -4.1828834     -2.7578806      0.61050696     156.56676            103   0.65786633     0.64578339   
      5650   0.96184506    -4.2670464     -2.8242788      0.15374713     162.79186            107   0.65728103     0.64516376   
      5700   0.96574954    -4.2678794     -2.8458353      0.47372151     161.39801            109   0.67534909     0.64505758   
      5750   0.93064349    -4.1618247     -2.7658594     -0.34980129     168.32109            107   0.63568981     0.64575602   
      5800   0.94790376    -4.2158035     -2.820037       0.5872021      161.60036            109   0.67450345     0.64678684   
      5850   0.94314806    -4.0777551     -2.6761323      0.19650548     167.16525            108   0.64606727     0.64824711   
      5900   0.9641907     -4.0362491     -2.6294072      0.060149269    174.57346            110   0.63010723     0.64930409   
      5950   0.93031785    -4.0071779     -2.6373062      0.096270699    173.38985            109   0.62864117     0.64934308   
      6000   0.89489098    -3.9857601     -2.6434236      0.20682386     171.84741            107   0.62264541     0.64856702   
      6050   0.94178264    -4.2332515     -2.859105       0.72644138     162.67407            110   0.67619872     0.64787305   
      6100   0.94999082    -4.3145026     -2.915663       0.22595258     163.1076             109   0.66827051     0.64813825   
      6150   0.96207221    -4.2390481     -2.8352972     -0.00079705357  166.63966            110   0.66010697     0.64888316   
      6200   0.90901919    -4.2714178     -2.8950256      0.57220767     159.80597            106   0.6633044      0.64868894   
      6250   0.91014277    -4.374818      -3.0222447     -0.073083451    161.13235            108   0.67025648     0.64989926   
      6300   0.88591731    -4.248393      -2.9318215      0.21926594     163.41905            108   0.66087766     0.65158321   
      6350   0.89362383    -4.1849295     -2.8690889      0.063476516    168.31382            109   0.64759983     0.6519921    
      6400   0.91219566    -4.1463145     -2.7906904      0.058324723    169.31938            108   0.63784785     0.65188169   
      6450   0.87160088    -4.1378649     -2.8181296      0.17269892     168.46139            106   0.62922428     0.65082989   
      6500   0.91220044    -4.2668623     -2.9478697      0.42619743     168.06877            111   0.66044394     0.65032644   
      6550   0.96549515    -4.2542208     -2.8454756      0.10742488     171.78507            110   0.64033504     0.65068173   
      6600   0.97669357    -4.2364976     -2.8242515      0.068597714    171.20842            111   0.6483326      0.65018239   
      6650   0.95327613    -4.1156727     -2.6989985      0.31191016     167.82148            108   0.64354097     0.6494796    
      6700   0.94653282    -4.1178908     -2.7112378      0.39976652     167.32945            108   0.64543329     0.64862278   
      6750   0.928398      -4.0169779     -2.5978552      0.18525415     168.35525            105   0.62368119     0.64651735   
      6800   0.9806251     -4.1127021     -2.6553843      0.54686716     163.98646            108   0.65859096     0.64603855   
      6850   0.97894619    -4.2459352     -2.7911124      0.014256068    163.37591            108   0.66105218     0.64594921   
      6900   0.97972048    -4.5259364     -3.0699629     -0.10610005     157.02356            108   0.68779487     0.64806669   
      6950   0.96541929    -4.3829559     -2.9482356      0.17121308     160.37507            108   0.67342137     0.65095296   
      7000   1.0286065     -4.5050145     -3.017705       0.85021418     155.78537            111   0.71251877     0.65364757   
      7050   0.99526548    -4.5382357     -3.0860529      0.18769432     157.74461            110   0.69732971     0.656533     
      7100   0.97878925    -4.5387821     -3.0975374     -0.32319845     160.76918            109   0.67799063     0.65825725   
      7150   0.99178254    -4.5114696     -3.0375705      0.028052517    157.29035            108   0.68662824     0.66018361   
      7200   0.97170541    -4.4167596     -2.9454509      0.25344152     155.47931            106   0.68176274     0.66174286   
      7250   0.96568761    -4.3148488     -2.852652       0.67451101     156.00548            106   0.6794633      0.662119     
      7300   0.99354787    -4.5594699     -3.0829474      0.11273056     155.64855            108   0.69387092     0.66227284   
      7350   0.99354787    -4.6358671     -3.1593446      0.38314635     151.74286            108   0.71173036     0.66505501   
      7400   0.99354787    -4.5677972     -3.0912747      0.36780247     153.06452            108   0.70558483     0.66803251   
      7450   0.99354787    -4.4752839     -2.9987613      0.053903844    157.17622            108   0.68712682     0.6713728    
      7500   1.0151821     -4.4698172     -2.9611438      0.02446707     158.55922            108   0.68113353     0.67419107   
      7550   1.0112309     -4.5424456     -3.0255993      0.96674264     149.60723            107   0.71520608     0.67662268   
      7600   0.97889132    -4.4128144     -2.9165091     -0.28185161     159.79051            105   0.65711035     0.67922067   
      7650   0.98820579    -4.1995054     -2.7032126      0.30641993     162.06991            106   0.65403876     0.68026587   
      7700   0.9674105     -4.2147089     -2.7072391      0.27622645     160.59995            103   0.64134515     0.68033141   
      7750   0.95016446    -4.0598944     -2.5647827     -0.2235306      168.22814            102   0.6063195      0.68085378   
      7800   0.98959545    -4.2115366     -2.7271434      0.14604696     164.8108             107   0.64922931     0.68067835   
      7850   0.96903049    -4.2325643     -2.7790186      0.21215965     167.57081            107   0.63853602     0.6804178    
      7900   0.93668356    -4.2763768     -2.8713515      0.085067913    165.73445            107   0.64561108     0.67880501   
      7950   0.96478284    -4.3073598     -2.8996539      0.40076381     165.88087            110   0.66312649     0.67666769   
      8000   0.96775802    -4.3573143     -2.9452674      0.48208612     163.53259            110   0.67264881     0.67588338   
      8050   0.93118379    -4.3603157     -3.0138743      0.025132792    165.93773            111   0.66892561     0.67424388   
      8100   0.943885      -4.3728196     -3.0201987     -0.051581741    168.5656             112   0.66442976     0.67309775   
      8150   0.89512636    -4.3835878     -3.0655347      0.21710246     162.94332            109   0.66894427     0.67163795   
      8200   0.88978917    -4.4340522     -3.1117267      0.5110219      156.92152            108   0.68824214     0.67098737   
      8250   0.88482789    -4.4315783     -3.1043365      0.069004071    158.16257            107   0.67651908     0.67082425   
      8300   0.90399557    -4.5031605     -3.1597226      0.092574753    157.27873            108   0.686679       0.67157413   
      8350   0.9150075     -4.4794474     -3.1196446     -0.14885177     159.0762             108   0.67891994     0.67073594   
      8400   0.92847317    -4.5979217     -3.2052119      0.04956711     152.44492            107   0.70189283     0.67006816   
      8450   0.90872334    -4.5314473     -3.1154269      0.065580307    150.32869            103   0.6851653      0.67007409   
      8500   0.85427306    -4.6183168     -3.2607839      1.1464235      139.98271            101   0.72151766     0.67015908   
      8550   0.9033424     -4.4497996     -3.055699       0.2772528      149.73122            104   0.69457791     0.6698094    
      8600   0.88213761    -4.1457351     -2.7576656      0.18731675     156.66024            102   0.65109054     0.66878925   
      8650   0.89385189    -4.228943      -2.808515       0.69668886     149.34526            101   0.67628527     0.66780893   
      8700   0.89102295    -4.1177742     -2.6876823      0.40969442     154.05388            100   0.64912356     0.66816791   
      8750   0.85622611    -4.1476487     -2.7595246      0.63636687     150.57205             99   0.65749255     0.66829499   
      8800   0.88917962    -4.3109873     -2.8979841      0.15619888     151.5295             101   0.66653688     0.66862998   
      8850   0.90863961    -4.3413045     -2.9523839      0.17936        155.46364            105   0.67539909     0.67017594   
      8900   0.91585858    -4.492566      -3.1058179      0.81593181     149.41061            106   0.70945432     0.67230973   
      8950   0.90193054    -4.3586058     -2.9666842      0.20796949     153.95908            104   0.67550415     0.67417945   
      9000   0.90122556    -4.3761703     -2.9580654      0.34618752     149.23217            102   0.68349873     0.67478891   
      9050   0.86578226    -4.1997434     -2.8101629      0.32869669     154.19284            100   0.64853855     0.67539241   
      9100   0.86217257    -4.1743884     -2.7906014     -0.019856401    157.23766            100   0.63597996     0.67376521   
      9150   0.87408166    -4.2549178     -2.8520167     -0.087311992    156.119              100   0.64053704     0.67282421   
      9200   0.88568889    -4.3457715     -2.9383154      0.56682745     149.84588            101   0.67402587     0.67216404   
      9250   0.88144864    -4.4144366     -2.9997115     -0.043104008    149.37417            100   0.66945977     0.67190779   
      9300   0.84908713    -4.2646889     -2.8881386     -0.42319756     154.03502             99   0.64271099     0.67096318   
      9350   0.81112855    -4.2834975     -2.9550676      0.16547775     149.04608             98   0.65751478     0.66980339   
      9400   0.83658262    -4.2432868     -2.9005717     -0.2347187      152.6528             100   0.65508133     0.6685686    
      9450   0.85170723    -4.4219498     -3.0684943      0.016062407    149.10451            101   0.67737725     0.66722976   
      9500   0.85927662    -4.3564416     -3.0174717     -0.39962759     154.66905            103   0.66593801     0.66697804   
      9550   0.86191592    -4.2498179     -2.9067353     -0.24910112     160.93761            103   0.63999955     0.6665811    
      9600   0.87556357    -4.206622      -2.842273      -0.053711504    158.83166            103   0.64848531     0.66536367   
      9650   0.87079417    -4.2909075     -2.9206873      0.43347478     151.23524            102   0.67444598     0.66627158   
      9700   0.85258178    -4.111685      -2.7568397      0.27396809     155.61326            101   0.64904495     0.66712252   
      9750   0.85728997    -4.1587356     -2.8097646      0.060520752    157.27512            102   0.64854505     0.66781207   
      9800   0.86325424    -3.9779931     -2.6196372      0.034855234    164.15474            102   0.62136494     0.66687293   
      9850   0.84834972    -3.9844312     -2.649528       0.38202989     160.27066            102   0.63642343     0.66449373   
      9900   0.86957572    -3.9458445     -2.590826       0.98538043     159.26828            103   0.64670754     0.66134191   
      9950   0.87428275    -3.9799804     -2.6307267      0.47107236     163.04553            104   0.63785864     0.65841296   
     10000   0.88173028    -3.9912845     -2.603856       0.20295036     161.71901            102   0.63072364     0.65565585   
     10050   0.88601377    -4.0285809     -2.6479477      0.53072672     160.30638            103   0.64251965     0.65314298   
     10100   0.93470964    -4.0899993     -2.6747078     -0.079755745    168.69324            106   0.6283595      0.65275805   
     10150   1.0049354     -4.0109147     -2.5311704      0.1311976      172.08933            109   0.63339196     0.6519339    
     10200   1.0063876     -4.284736      -2.8028534      0.11160519     164.76855            109   0.66153401     0.65204      
     10250   1.0206699     -4.2424789     -2.7666454      0.52305566     165.16366            111   0.67206066     0.65192116   
Loop time of 37.4386 on 4 procs for 10000 steps with 111 atoms

Performance: 115388.829 tau/day, 267.104 timesteps/s, 29.649 katom-step/s
98.1% CPU use with 4 MPI tasks x 1 OpenMP threads

MPI task timing breakdown:
Section |  min time  |  avg time  |  max time  |%varavg| %total
---------------------------------------------------------------
Pair    | 0.063454   | 0.075997   | 0.087386   |   3.1 |  0.20
Neigh   | 0.31679    | 0.35265    | 0.40064    |   5.4 |  0.94
Comm    | 0.34309    | 0.41876    | 0.48396    |   8.1 |  1.12
Output  | 0.0033554  | 0.0034914  | 0.0038419  |   0.3 |  0.01
Modify  | 36.548     | 36.563     | 36.578     |   0.2 | 97.66
Other   |            | 0.02452    |            |       |  0.07

Nlocal:          27.75 ave          28 max          27 min
Histogram: 1 0 0 0 0 0 0 0 0 3
Nghost:         489.75 ave         497 max         485 min
Histogram: 1 1 0 0 1 0 0 0 0 1
Neighs:            840 ave         933 max         718 min
Histogram: 1 0 0 0 0 1 0 1 0 1

Total # of neighbors = 3360
Ave neighs/atom = 30.27027
Neighbor list builds = 490816
Dangerous builds = 0
Total wall time: 0:00:37
