# helium

units		metal
atom_style	atomic

lattice		fcc 12.0
region		box block 0 20 0 20 0 20
create_box	1 box
create_atoms	1 box
mass		1 4.0

velocity	all create 300.0 87287 loop geom mom yes

pair_style beck 20.0
pair_coeff * * 399.671876712 0.0000867636112694 0.675 4.390 0.0003746

neighbor	2.0 bin
neigh_modify  delay 12 every 4

timestep 0.0005

fix		1 all nve

thermo 10

run		100
