LAMMPS data file via write_data, version 22 Jul 2025, timestep = 1000, units = lj

4000 atoms
1 atom types

0 16.795961913825074 xlo xhi
0 16.795961913825074 ylo yhi
0 16.795961913825074 zlo zhi

Masses

1 1

Pair Coeffs # lj/cut

1 1 1

Atoms # atomic

1 1 16.593343492267092 16.655237459189234 16.636282954327534 -1 -1 -1
2 1 0.9245407725421121 1.288624157739588 16.539991779586426 0 0 -1
3 1 0.46788332997373977 0.5740240462906148 0.4184849677262092 0 0 0
4 1 16.676535605986118 0.9299365355052871 16.020375392894135 -1 0 -1
5 1 1.5869937046214755 0.3518804002423833 16.56235254330782 0 0 -1
6 1 2.440061761346572 1.1903942717961566 16.662639649925573 0 0 -1
7 1 2.263265887796038 0.4178843230379319 0.7060557602805757 0 0 0
8 1 1.6421181916755343 1.213701323861363 0.6260873347442925 0 0 0
9 1 3.2310276299971297 0.23036815872325875 16.73804315258404 0 0 -1
10 1 4.062200554439624 1.0182149417738438 0.02345509163395234 0 0 0
11 1 4.616823566063845 0.3155492161184333 0.40101330163528015 0 0 0
12 1 3.2299567727940808 0.9428520467012823 0.7656790243618848 0 0 0
13 1 5.178025903849871 16.56390413491384 16.191769481482588 0 -1 -1
14 1 5.406654674495643 0.7709670461123851 16.650563849355326 0 0 -1
15 1 5.908544861656773 0.20840239092285476 0.5514562676115686 0 0 0
16 1 4.918801503954961 1.2369462446129196 0.8994897965936544 0 0 0
17 1 7.015510582352602 16.53046199966552 16.542838640659625 0 -1 -1
18 1 7.864923304004679 0.6028609280479537 16.35459732282476 0 0 -1
19 1 7.725834580406815 0.3388781091485137 0.6965754068285077 0 0 0
20 1 6.881520512507429 0.7226404802450063 0.11168866775492323 0 0 0
21 1 8.995970012239207 0.42724604336341204 0.3823572159932047 0 0 0
24 1 8.116894297302801 0.9604188776481437 1.5466783306638787 0 0 0
22 1 8.8283429314311 1.1593985916353893 16.264867463214042 0 0 -1
23 1 8.8049481800516 16.549319115677623 1.5804726016195305 0 -1 0
25 1 9.679677770162607 16.308971795383666 16.46565602263319 0 -1 -1
28 1 10.054526296083825 0.4467431214962642 2.16724856808109 0 0 0
26 1 10.084773487310823 0.30909763818913344 1.0832594409582128 0 0 0
27 1 11.213405698388653 0.01756785811551964 0.9797087186095657 0 0 0
29 1 12.332050091727423 0.6781217049660647 1.0062364090314544 0 0 0
32 1 10.566291900659936 1.006513549241665 0.2537124320901644 0 0 0
30 1 12.145320615357692 1.2169465912089115 0.0707362063376448 0 0 0
31 1 12.869470396936894 0.7732604083301702 1.9121276891678618 0 0 0
33 1 12.815431806478152 0.43414056669280465 16.78436565150098 0 0 -1
36 1 13.4444795126519 0.40263517811180843 0.895005810413793 0 0 0
34 1 14.51572333130481 0.4513047457472139 1.3370223796395755 0 0 0
35 1 14.254700570499542 16.670218521002973 0.44595116622050845 0 -1 0
37 1 15.015581208995583 0.3530660857190933 15.829078134540989 0 0 -1
40 1 15.070314612387712 0.5653395710254661 0.490923225849707 0 0 0
38 1 15.813753174551223 0.7439020981750896 16.60708165828883 0 0 -1
39 1 16.16564384180935 0.14579897528561345 0.6806481688590245 0 0 0
41 1 0.07310260330904433 1.7238611199215195 0.0007257559052575857 0 0 0
42 1 0.8760705196572106 2.4637486104479707 16.643952441619422 0 0 -1
43 1 0.5713221433162802 1.4888103142494917 0.9595637127086323 0 0 0
44 1 0.4280694343293156 2.53765639099858 0.7680114659257857 0 0 0
45 1 1.9252210500497053 2.100891968449721 16.620704851388414 0 0 -1
46 1 2.5561369520294317 2.8181593775379388 0.19121937197063238 0 0 0
47 1 2.66798985970623 1.8113051300037841 0.8658348246108668 0 0 0
48 1 1.5558207197045617 2.1483691570854635 0.9281759813274872 0 0 0
49 1 3.355150040051906 1.7842136751465696 16.591991710933343 0 0 -1
50 1 4.062403432050253 2.5351865150870765 16.62542703297088 0 0 -1
51 1 4.0103815323321 1.8697598195826146 0.7772161503051245 0 0 0
52 1 3.4580421409123225 2.7261341188313013 0.6254671332434892 0 0 0
53 1 4.878453467507791 1.7729714011690259 16.745618540688135 0 0 -1
54 1 6.351964904405289 2.463025240825902 16.775757904514403 0 0 -1
55 1 5.701921037141107 2.04731806407516 0.8400122019866335 0 0 0
56 1 4.686289012864203 2.644119724981867 0.8162401186825242 0 0 0
57 1 7.018604716828573 1.731525276246355 16.56172353611259 0 0 -1
58 1 7.785414905148644 2.4170432839680753 0.21379723033112086 0 0 0
59 1 7.80761249800011 1.9895174717997923 1.8219780675971593 0 0 0
60 1 6.693089493797907 2.3030384251081655 1.02468897951055 0 0 0
61 1 8.202156711317263 1.2591360210115754 0.4563198731193897 0 0 0
64 1 6.868199293111886 2.0398768036026778 2.251363009370824 0 0 0
62 1 8.800540250496457 2.0497235236899245 1.1363448803501133 0 0 0
63 1 9.517486124642186 1.2088280576320696 1.0163019859124267 0 0 0
65 1 9.893642895665089 1.7229376376047876 16.410397686139437 0 0 -1
68 1 9.682093351491902 2.31866845022369 1.480890245718612 0 0 0
66 1 10.347912819679138 2.065445551112277 0.580766487570698 0 0 0
67 1 10.855432988572478 1.3498754366623258 1.6153593749545023 0 0 0
69 1 11.361893328294066 1.4672517442778252 0.6888508231803141 0 0 0
72 1 10.79564801145314 2.5767597415762666 1.2831165904027977 0 0 0
70 1 11.96086542048633 2.337220909069875 0.18031548985707863 0 0 0
71 1 12.491253756492636 1.8306401623378448 1.093643380012852 0 0 0
73 1 13.130192853274782 1.342679025383162 0.4254358225647344 0 0 0
76 1 12.980617420586546 2.606121572342987 0.40264070404254165 0 0 0
74 1 13.901635205757922 2.1781092421612596 0.5399008219896148 0 0 0
75 1 14.19352769629659 1.1143559719501863 0.5517715251767992 0 0 0
77 1 15.972757085731644 1.2992182826160952 0.7838794722183292 0 0 0
80 1 15.228280321632814 2.5399249723136013 1.0291265350206014 0 0 0
78 1 15.145373505437528 1.7542963628585853 0.24899077329924077 0 0 0
79 1 16.467629565897642 1.9399196593056132 1.5152961091975945 0 0 0
81 1 16.646512262746317 3.029985359223525 16.741339673507994 -1 0 -1
82 1 0.6635211780226412 3.849841403005614 16.769226827498674 0 0 -1
83 1 1.6105184048450503 3.2282417361336364 0.6755579615200099 0 0 0
84 1 0.46088504018216947 3.6000675070547805 0.9351231904349329 0 0 0
85 1 1.735668395048813 3.663116128718168 16.53566905490374 0 0 -1
86 1 2.6371802442011782 4.343539716264803 16.67066364778709 0 0 -1
87 1 2.701130980398298 3.688759868171259 0.6964335841745992 0 0 0
88 1 2.3084862601079528 4.657869553555578 0.7515906912607855 0 0 0
89 1 3.3553797644490237 3.4259186590635378 16.65396529375595 0 0 -1
90 1 4.412486161557373 4.224860328894353 16.511354188049797 0 0 -1
91 1 4.051455638846998 3.514758877836907 0.7161628451756453 0 0 0
92 1 3.4467234898269394 4.546885965451387 0.7197241349174552 0 0 0
93 1 5.405161175777295 2.763172058725386 16.779843323667613 0 0 -1
94 1 5.917891466826543 3.964636416258773 0.04892108339926606 0 0 0
95 1 5.958152297469948 3.2615157820858154 0.8525159884218165 0 0 0
96 1 5.035325425529561 3.7749472691100054 0.3601891625324224 0 0 0
97 1 7.0709427900706805 3.268025098124937 0.02275565795291108 0 0 0
98 1 7.937700255787322 4.035140067785917 0.20277625135660057 0 0 0
99 1 7.9239231214171975 3.4953818088933786 1.0984207128984578 0 0 0
100 1 6.878095573240862 3.9963537481150873 0.8636480343943042 0 0 0
101 1 8.452756146175075 3.1509906973141146 16.633600010392094 0 0 -1
104 1 9.084725612182421 4.005516122147046 0.2734510639849392 0 0 0
102 1 8.972466589763444 3.1343596012673642 0.8432152488397613 0 0 0
103 1 8.349031971927296 2.9787374295827678 2.04866042674456 0 0 0
105 1 10.156945767017598 3.0862457997070183 0.504382571997247 0 0 0
108 1 9.73214934664805 3.812702989124889 1.288305276119815 0 0 0
106 1 10.276917104429085 4.075401504342846 0.10551739443049289 0 0 0
107 1 10.357060739700378 3.3764650149144337 1.9191319145009609 0 0 0
109 1 11.112805112736416 2.999154393735258 0.31977790050793675 0 0 0
112 1 10.896746124870727 3.716385457087616 1.1090568494263933 0 0 0
110 1 11.58320945361989 4.023540387824652 0.3433780924881261 0 0 0
111 1 12.033672864210002 3.192761112217822 1.0472230268239462 0 0 0
113 1 13.870251042171747 2.9704057296743893 16.29583447721355 0 0 -1
116 1 12.990691818985445 3.577553247272341 1.6330182315842927 0 0 0
114 1 14.042198801252233 4.110057804774141 0.24241015462975296 0 0 0
115 1 13.667160836951245 3.2541529649705154 0.8140285598146468 0 0 0
117 1 15.179908260165107 3.7246413182492892 16.45857140607058 0 0 -1
120 1 15.63563761148352 2.8659500216319405 16.65204621400657 0 0 -1
118 1 15.835939016544167 4.529625132048717 16.38237789310873 0 0 -1
119 1 16.321768043042848 3.230686122439341 0.9256958484553387 0 0 0
121 1 16.598347515755748 5.232978929365622 16.660806338414226 -1 0 -1
122 1 0.9199459321551311 5.85022536681024 16.509981319355433 0 0 -1
123 1 1.3379773413727454 4.363093635278836 0.9020155983035907 0 0 0
124 1 0.6540272513128568 5.2424221483455735 0.6070757347435901 0 0 0
125 1 1.682215122499046 4.923343273553977 16.69470861051115 0 0 -1
126 1 2.388647815630927 5.696624611563636 0.00933039235063049 0 0 0
127 1 3.0399344975203264 5.444688871965875 1.1138130961392336 0 0 0
128 1 1.5886962603794021 5.672074842315734 0.6728692818392068 0 0 0
129 1 3.371944536264148 5.194632030638186 16.58770864586866 0 0 -1
130 1 4.965418206698207 5.79678127182228 0.2513662576419388 0 0 0
131 1 4.63675222496271 4.807101396724937 0.5816776815793201 0 0 0
132 1 4.367275136477739 5.551328153046079 1.1731972928224086 0 0 0
133 1 5.509533300269862 4.872967702685165 0.09585785044457486 0 0 0
134 1 6.026473542975166 5.910827940953884 16.694955799094057 0 0 -1
135 1 6.132103260044863 4.707194108142904 0.9505356423311722 0 0 0
136 1 5.548377475904601 5.992994407349905 1.147406608208642 0 0 0
137 1 6.641137878310993 4.905890050063257 16.792121311685154 0 0 -1
138 1 7.576176322415703 5.523404399556393 0.5857675919708272 0 0 0
139 1 7.87715332578918 4.612129706193142 1.0759213919696375 0 0 0
140 1 6.542359965721327 5.695455333828374 0.8499206231971702 0 0 0
141 1 8.49807340796417 4.978824092932176 0.16626564551475198 0 0 0
144 1 8.416532838313758 6.107046046867408 1.0245190482931905 0 0 0
142 1 8.984634415694243 5.913700920363928 0.12677633908329916 0 0 0
143 1 8.926457016517793 5.1777106143929545 1.067680090116052 0 0 0
145 1 9.53511447046287 4.932082851506388 0.1265051749228693 0 0 0
148 1 10.061687280021191 5.969564349760204 0.21647011170081956 0 0 0
146 1 11.20071959454772 5.831062721525822 16.670725892915797 0 0 -1
147 1 10.117260958892526 4.93232263453553 0.9941980206175013 0 0 0
149 1 11.154257179490598 4.908384544448653 0.5641896217086652 0 0 0
152 1 11.502420936276925 5.90976717883399 0.8407402131896865 0 0 0
150 1 13.083527945053095 6.022814636213362 0.24872813488528983 0 0 0
151 1 12.469203648979017 4.503691527410016 1.2020946656332614 0 0 0
153 1 12.696408204184147 3.6690730398384805 0.5171549389768865 0 0 0
156 1 13.314342936372398 5.064678752104799 0.9379523937763071 0 0 0
154 1 14.12138142260387 5.559850184450565 15.718962533000479 0 0 -1
155 1 14.05938655649124 4.318916107256617 1.3760782855076439 0 0 0
157 1 15.112953423713904 4.449947004588377 0.4464965866948913 0 0 0
160 1 13.992440501847684 6.250222603572193 16.531243537142235 0 0 -1
158 1 16.135134707190367 6.230364901643991 0.1778086733703357 0 0 0
159 1 16.537826277167223 4.070290890245639 0.2014171920922988 0 0 0
161 1 0.5213363982599799 7.019449556918997 16.612900641187217 0 0 -1
162 1 1.223977761421958 8.094380261742199 16.550600256794212 0 0 -1
163 1 1.078294602059141 6.677429757088435 0.839499252032806 0 0 0
164 1 15.801031880007377 6.902711586032466 0.9148527661993162 -1 0 0
165 1 1.642849448785291 6.822190095704281 16.661685878310763 0 0 -1
166 1 2.985632352272545 7.139742563837956 16.578622282055854 0 0 -1
167 1 2.4242321007756744 6.423869672828578 0.7805545453088482 0 0 0
168 1 1.6482074274032301 7.575897136079581 0.6773644882828943 0 0 0
169 1 3.3003024487899166 6.113417519896657 0.30324307449635884 0 0 0
170 1 4.018261892825802 6.944424933241602 0.1291609510173666 0 0 0
171 1 4.844385089899983 6.840262675149603 0.8198021832762897 0 0 0
172 1 3.14738276740128 7.16926836793287 0.9460076749659994 0 0 0
173 1 5.839379419766821 6.936081364050442 0.1472616162531824 0 0 0
174 1 6.645040618122036 7.778263657987963 0.23974392327044441 0 0 0
175 1 6.330016621331981 7.098169720264474 1.0777723087955924 0 0 0
176 1 5.432532801454891 7.634272472631382 0.6775602667723568 0 0 0
177 1 6.870840780213295 6.665630868017692 16.795023785642318 0 0 -1
178 1 7.85517105304633 7.477437128348588 16.43256035635893 0 0 -1
179 1 7.203294953298252 6.400708631234507 0.898774365078816 0 0 0
180 1 6.271042945076604 8.500425192504473 0.8463048339749007 0 0 0
181 1 8.136697854063366 6.623979461037896 0.14761048384705042 0 0 0
184 1 7.822612547116135 7.345378090280993 0.8862605609233095 0 0 0
182 1 8.928863625799782 7.6471315829979805 16.576179637733503 0 0 -1
183 1 8.878776958338875 7.113449834155865 0.8055850940966138 0 0 0
185 1 9.798411048482512 7.061031447187675 16.75539234818331 0 0 -1
188 1 10.2368662126829 7.573831090356677 0.9500433848653792 0 0 0
186 1 10.706261138940052 7.66146761370145 16.684622503720547 0 0 -1
187 1 10.69142815046884 6.714514777413488 0.550103575204394 0 0 0
189 1 12.193889551985299 6.460062026512671 16.54454493970035 0 0 -1
192 1 11.223900373717015 7.611015061827835 0.8100094761962584 0 0 0
190 1 13.049624478772222 7.094716575481057 16.75068481303692 0 0 -1
191 1 12.021505758818037 7.000725957030704 0.6430029994583367 0 0 0
193 1 13.920991398525562 7.097883739792838 0.49213779153516296 0 0 0
196 1 13.088948273609233 7.144084157663301 1.1974219019359609 0 0 0
194 1 14.968500675173141 6.6840471954849825 16.78414935921979 0 0 -1
195 1 13.755809778192422 6.143585289263649 1.2292513306157102 0 0 0
197 1 14.861607399734444 6.376703127845446 15.45726620048596 0 0 -1
200 1 14.976313602082804 5.606586283274888 16.733485602759483 0 0 -1
198 1 15.276614121483684 7.767248785594045 16.39594505455361 0 0 -1
199 1 16.226914310576355 4.898199759512841 0.8385056962019705 0 0 0
201 1 16.218202452464013 7.4149123665701815 16.761348896147076 -1 0 -1
203 1 0.3288294257004192 7.962833430865825 0.5612291436508324 0 0 0
205 1 2.3323817906133293 7.9926568622602465 16.648445201904618 0 0 -1
207 1 2.5948968905073078 8.409655878721983 0.813703221758764 0 0 0
209 1 3.4597958537648004 8.162359187196737 0.35636611496800996 0 0 0
211 1 4.35690263799521 7.743263757026578 0.8923919429519034 0 0 0
213 1 4.503486663112389 7.818751442906454 16.567530011248827 0 0 -1
215 1 5.256958387251979 9.08978224585151 1.707527949840931 0 0 0
217 1 6.303178735899406 8.734197272764968 16.49185158411952 0 0 -1
219 1 7.339420030461738 8.491697589620559 0.5811346883896309 0 0 0
221 1 8.187472497180513 8.451105953853176 16.71610646842677 0 0 -1
223 1 9.001042700228584 8.406911477104495 0.7320287447273442 0 0 0
225 1 9.780273690443408 8.363403809084 16.626108229395665 0 0 -1
227 1 10.692983102347897 8.583486886072532 0.5534164621462615 0 0 0
229 1 11.43349316810609 8.652246357830666 16.72133056641545 0 0 -1
231 1 12.44375963066953 7.921437312527546 0.6418055384374899 0 0 0
233 1 12.793336969228884 8.11643998049099 16.401156738178205 0 0 -1
235 1 14.247053555227065 7.969064780450273 0.9407962652756406 0 0 0
237 1 15.168110365629104 7.606701038967194 0.6366473918080827 0 0 0
239 1 16.023265780297866 8.55904600692356 0.9808066787034879 0 0 0
202 1 1.7502235863642008 8.751392252436354 15.902023023134495 0 0 -1
204 1 0.10600974934910751 9.00868324837558 0.5407654394381056 0 0 0
241 1 0.8279137094194682 9.607373301362385 0.07983644147609237 0 0 0
243 1 1.208515806725096 9.845647774459037 1.0148217802542994 0 0 0
206 1 2.9386327654861253 8.929492565836473 16.604658911252876 0 0 -1
208 1 1.170280410539953 8.603554876609248 0.7685508143331752 0 0 0
245 1 1.8587707850668658 9.55313176109686 16.587500257481878 0 0 -1
247 1 2.0604414921273646 9.241081265672987 0.7288717716571215 0 0 0
210 1 3.8218916021049303 8.862275363811936 15.997218054795942 0 0 -1
212 1 3.521781741042445 9.105938231238454 0.7135454406722025 0 0 0
249 1 2.6656998919376234 10.035719040879183 0.4510302808911407 0 0 0
251 1 4.091753984286469 9.976074111257597 0.2572329967711768 0 0 0
214 1 5.233386228164994 8.62050697665723 0.7369075507577322 0 0 0
216 1 4.46928927202565 9.016546567939017 0.06719650921247895 0 0 0
253 1 4.902395919828147 9.866805657564067 16.3468290234015 0 0 -1
255 1 5.81938467788989 9.597692149351444 0.17379425409653723 0 0 0
218 1 7.554825918505281 9.301747142433966 16.715953226543007 0 0 -1
220 1 6.746410931014524 9.475692751923376 0.705242022843029 0 0 0
257 1 6.826717010744962 10.194706197918753 16.547986941374006 0 0 -1
259 1 7.524147482985753 10.170110980969415 0.5985680825518829 0 0 0
224 1 8.32824490600789 9.222888670711786 0.6529934068269858 0 0 0
261 1 8.432527693650643 10.022513891820271 0.014880510047647165 0 0 0
222 1 9.094334154042205 9.134751932297217 16.651735236623903 0 0 -1
228 1 9.600347053321642 9.49845328697863 0.7953079547105881 0 0 0
263 1 9.790533803539375 10.638170510519936 1.2320810139981195 0 0 0
265 1 9.561059736914357 10.249159607496761 16.747336684350184 0 0 -1
226 1 10.514428916915413 9.599404728935054 0.18193387465193583 0 0 0
232 1 11.491076316065826 9.688019465353648 0.5134637026685764 0 0 0
267 1 10.565654323020963 10.49441984144267 0.4882978487119824 0 0 0
269 1 11.437710437905633 10.499680355759518 16.565314573718407 0 0 -1
230 1 12.457670333219378 9.07353346790585 0.29349376224182633 0 0 0
236 1 13.479307225988642 8.604331041757153 0.5655112645227912 0 0 0
271 1 13.018033673100325 10.151365172634634 2.003326891313916 0 0 0
273 1 13.51890760063346 9.505141497421068 0.11378680219031627 0 0 0
234 1 14.49799511642745 8.526255364564795 0.11602217337272411 0 0 0
240 1 14.880633780483354 8.732236359345992 1.1699240359699243 0 0 0
275 1 14.326753138939344 11.122110634655801 1.1033581337644058 0 0 0
277 1 15.546547952338386 9.200546646664366 15.35697790300843 0 0 -1
238 1 15.551267326482781 8.746751190101005 16.736326631787463 0 0 -1
279 1 16.162219585211 9.823565782817361 0.4323558013043087 0 0 0
242 1 1.3392193280783853 10.443011224281253 16.632726362687112 0 0 -1
244 1 0.46337400245332117 10.515311351304803 0.6122604910248067 0 0 0
281 1 0.2932175489861888 11.575357153824783 16.61652085065178 0 0 -1
283 1 0.9288751620292367 11.53877421030066 0.8645303513511331 0 0 0
246 1 2.7876911041317074 11.131888414112764 0.15578291490347249 0 0 0
248 1 1.6467409315896004 10.743875552411836 0.7576335087610573 0 0 0
285 1 1.4644897148917335 11.483666442361525 16.717620800697198 0 0 -1
287 1 2.0570908362196145 11.784900911856216 0.768886546935917 0 0 0
250 1 4.918139076585577 11.205162686062389 16.795922104414576 0 0 -1
252 1 3.540178404719555 10.912679541724312 0.8117802241624461 0 0 0
289 1 3.272508074606543 11.887218819860687 16.30855458484217 0 0 -1
291 1 3.9157033994672195 11.70389787709594 0.34588611919325957 0 0 0
254 1 5.889098116857597 10.821869850673375 16.53548840075725 0 0 -1
256 1 5.613799632253567 10.559137133445228 0.6804735591908204 0 0 0
293 1 5.2537595460316195 12.104296848991677 16.523311416435234 0 0 -1
295 1 5.717734673004199 11.7138385576419 0.6177749123675356 0 0 0
258 1 7.469603794867379 11.391165544760876 16.615152329869325 0 0 -1
260 1 6.788903229332261 10.965370185506398 0.5508127764006134 0 0 0
297 1 6.422968753021092 11.67238838947392 16.463317960723423 0 0 -1
299 1 7.327468651727814 12.166278297331253 0.6859731001635512 0 0 0
264 1 7.712281048754643 11.221701843216938 1.48768965486573 0 0 0
301 1 8.490289101999744 11.979122363314838 0.5672645699757076 0 0 0
262 1 8.187247066031533 10.913878742564105 0.5901270831971387 0 0 0
268 1 9.88454572607707 11.588970538223423 1.7083044420243634 0 0 0
303 1 9.323192807806223 12.456622304177243 1.3733129116266145 0 0 0
305 1 9.417258302840855 11.45031615145541 0.6193855862994492 0 0 0
266 1 11.078454680021734 11.91550062759929 0.23347662468822866 0 0 0
272 1 11.847246978218616 10.715573402055943 0.9325936774100849 0 0 0
307 1 10.583934357671975 11.43057494545626 0.9510490308478368 0 0 0
309 1 12.055505871760602 11.123519545517842 16.144063945606785 0 0 -1
270 1 12.368486605558441 10.049898345656104 0.0928864038851679 0 0 0
276 1 12.399549067215439 11.568856615284185 0.4414126391756808 0 0 0
311 1 12.577914908510737 12.737139321182653 0.1986138624246573 0 0 0
313 1 12.929370586862479 11.742986063993076 16.34681384784232 0 0 -1
274 1 13.002751592539774 10.870970786673276 0.9536008961656197 0 0 0
280 1 14.676235726244023 9.51426925951403 0.3209302417446888 0 0 0
315 1 13.551987395902547 11.805669470532498 0.6057400979478171 0 0 0
317 1 15.045074955114508 11.460557842236375 16.646219778401 0 0 -1
278 1 15.434557229777155 9.644032004866498 16.372352013206008 0 0 -1
319 1 15.275073337996952 10.774743009457861 0.5664407474930562 0 0 0
282 1 1.1423812802395146 12.4152268636827 0.14901936747137154 0 0 0
284 1 0.15460410342005268 12.536108624485903 0.2235013793071992 0 0 0
321 1 16.337015789605974 13.96971251181944 16.788835260374697 -1 0 -1
323 1 0.9370432539406129 13.462354562805157 0.21245543944747874 0 0 0
286 1 2.458600541510145 12.431810663692488 0.13924886616566337 0 0 0
288 1 1.77110224721982 12.815694448560935 0.8407616369101932 0 0 0
325 1 1.2941184264321726 14.09024837034479 15.99970377302033 0 0 -1
327 1 2.3656656898684876 13.724063111571963 16.4794157791388 0 0 -1
290 1 4.250144289854682 12.630181799523058 16.739442925696903 0 0 -1
292 1 3.5244399703709224 12.700533621837025 0.7166132931120884 0 0 0
329 1 3.2920736517487437 13.388590386632766 16.63117849714188 0 0 -1
331 1 4.366197090387534 13.49986595200494 0.7672995610824098 0 0 0
294 1 6.041733925584493 12.956371678613497 16.44601940591995 0 0 -1
296 1 5.234363450703786 12.948499780519114 0.4009545984785772 0 0 0
333 1 5.123580895351434 13.675065021511966 16.195417286075944 0 0 -1
335 1 5.91415058516552 13.767012078495913 0.2666228531011604 0 0 0
298 1 6.992649751502294 12.567119432771358 16.58093612342111 0 0 -1
300 1 6.220349903904763 12.641139484704924 0.7430667711238866 0 0 0
337 1 6.937560479225712 13.767766778477709 16.66006692167036 0 0 -1
339 1 8.362733703331674 14.040011313586405 0.6702657204814435 0 0 0
304 1 8.232137208146879 13.15028694902423 1.2440122575955126 0 0 0
341 1 7.952016163136439 13.743701924348295 16.048640223042984 0 0 -1
302 1 9.111408327333981 11.862056938584727 16.507899567090732 0 0 -1
308 1 7.902707510128481 13.244661691514606 0.14526006328967905 0 0 0
343 1 9.072255909075777 14.0647580778146 16.61623521839708 0 0 -1
345 1 9.059821753113017 13.127149376628154 0.4981766043025521 0 0 0
306 1 10.136745052210202 12.371013977119263 16.351800128792153 0 0 -1
312 1 11.804616415705436 13.49826641923049 16.70533262197807 0 0 -1
347 1 9.821998080333316 13.331397466221592 16.69197118861032 0 0 -1
349 1 12.807103142443678 14.160035422233554 16.003944166997382 0 0 -1
310 1 13.046997828268932 12.831591799057351 15.841012541917356 0 0 -1
316 1 13.783059206604667 13.087350309875541 0.9197644736320982 0 0 0
351 1 12.522505780863568 13.462481086442608 0.9693460212104895 0 0 0
353 1 13.183865073217175 13.725647927404294 0.035638763564144665 0 0 0
314 1 13.558447167282663 12.672780404935086 16.795631397188693 0 0 -1
320 1 15.167969258108172 11.863159878291794 1.0897537657673235 0 0 0
355 1 14.433870233437057 13.391012948051522 1.7212697589232064 0 0 0
357 1 14.74317521352346 13.840584485201271 0.6138158584860136 0 0 0
318 1 15.736497738182663 12.898607709336732 0.8846357928310036 0 0 0
359 1 16.389013136619734 12.650175757670931 1.6154055773733142 0 0 0
322 1 0.505913360233095 14.358865181039114 16.72806542432606 0 0 -1
324 1 16.5757425947056 13.46773798462299 0.8374344792099938 -1 0 0
361 1 16.074426945428144 15.879895358275684 0.4649494173984225 -1 0 0
363 1 1.1198417411620738 15.33396931438545 0.48055374917784494 0 0 0
326 1 2.0808979042633844 14.806422419912778 16.333103379872338 0 0 -1
328 1 1.7009990970650866 14.23306931361153 0.2891746897248309 0 0 0
365 1 1.576205143406338 15.75204488171925 16.248128921947163 0 0 -1
367 1 2.0858996168176125 15.398022100232868 0.6361046133667179 0 0 0
330 1 3.926930132266345 14.441162087871428 0.11789997567615793 0 0 0
332 1 2.8072887443343544 14.654029360155633 0.4706967627299786 0 0 0
369 1 3.5063186400288364 15.380283786467018 0.3489921567574553 0 0 0
371 1 4.446204512902669 15.34492438602187 0.9326928546382557 0 0 0
334 1 5.8720997173672265 14.74076681376317 16.544504411650323 0 0 -1
336 1 5.066878576735148 14.32894379695562 0.4742220867286796 0 0 0
373 1 4.967237984538541 15.387249087846389 16.773513564470015 0 0 -1
375 1 5.759768114717105 15.489705422864484 0.9710720461023037 0 0 0
338 1 7.600658116363098 14.552429470126693 0.034245285993307555 0 0 0
340 1 6.577313256692345 14.521532709631776 0.7533383626561102 0 0 0
377 1 6.822890018330628 15.21771122552538 16.675316771475934 0 0 -1
379 1 7.440343181479663 15.16586905426004 0.957392592534237 0 0 0
344 1 8.57565739385654 15.116225936722843 1.1681985024407837 0 0 0
381 1 8.538764419636424 14.977887832752245 0.16640282590862931 0 0 0
342 1 9.309673069446477 15.320829160434842 16.342554458644038 0 0 -1
348 1 10.108822179171375 14.40446114844367 16.532351853698906 0 0 -1
383 1 9.583738383036549 15.060722407639725 0.5457100183513202 0 0 0
385 1 10.38312061477177 15.410356183907684 16.61775551669304 0 0 -1
346 1 11.348128506666239 14.527446919223268 16.65416508652497 0 0 -1
352 1 11.611211819801236 14.030023619978246 0.7578707067124621 0 0 0
387 1 10.690453574029046 14.707604343471438 0.6478267061710469 0 0 0
389 1 12.17657515470065 15.24808880136429 0.7814360730949025 0 0 0
350 1 12.383232473050064 14.439757865398386 0.14876197436503003 0 0 0
356 1 13.531075848194806 13.949448763647709 1.403944283469909 0 0 0
391 1 12.658662846214618 15.706133269452291 0.036451879619052815 0 0 0
393 1 13.313677795651497 14.812853474442027 16.607538936579953 0 0 -1
354 1 14.116751219373388 14.673864599540043 0.7335896740462604 0 0 0
360 1 14.838252748596478 14.457069385389126 1.6341316748226113 0 0 0
395 1 14.28560502921647 16.146885270866505 1.4537385895733004 0 0 0
397 1 14.940533030894485 15.386536585163123 0.7647917181683273 0 0 0
358 1 15.549722893984578 14.499754206284257 0.48567219167822606 0 0 0
399 1 16.582913468988824 14.995901092383024 0.45831499735925163 0 0 0
362 1 0.7864277306098946 16.51356749806583 16.38510789245464 0 0 -1
364 1 0.32092640379392673 16.122316210026348 0.6146216510315126 0 0 0
366 1 2.3144566305522636 16.434487854900873 16.546438026089703 0 0 -1
368 1 1.3952217272392242 16.45403009345683 0.5070338873793897 0 0 0
370 1 4.20131497235825 16.116122613647075 0.08886666826246944 0 0 0
372 1 2.8948247751497993 16.13392790144779 0.7165643194886652 0 0 0
374 1 5.929890078646268 15.808636700481383 16.60518564898029 0 0 -1
376 1 5.176314013169974 16.199496778347996 0.5766843936143358 0 0 0
378 1 8.012997757208277 16.0736897999935 0.873450470330418 0 0 0
380 1 6.923287083906655 16.036377089164883 0.6221101259044111 0 0 0
384 1 7.85303634088856 15.30728690810249 2.1999132921430604 0 0 0
382 1 9.029402329678012 16.182061193810497 0.5926830881336906 0 0 0
388 1 10.457882133634557 15.833034024422101 0.7850430565772922 0 0 0
386 1 10.903069062624201 16.483091915631142 16.709818500684378 0 0 -1
392 1 11.49760580388801 15.86443892459671 1.2624195209191191 0 0 0
390 1 13.100771698237066 16.310913805728287 0.8318269550022379 0 0 0
396 1 13.373881041353288 16.652136720661815 1.8209207381563604 0 0 0
394 1 14.19593225231998 15.766283333813426 0.07202740193263125 0 0 0
400 1 15.294957261054165 16.328310983862753 1.1154480836105365 0 0 0
398 1 15.266661262878133 16.45379301675758 16.751741418708267 0 0 -1
401 1 0.8781422969047892 0.1483453366134757 1.3041931413919616 0 0 0
402 1 1.4984123946499703 1.1710424629281033 1.7934131765631156 0 0 0
403 1 1.4742948470171817 0.25448809406825007 2.153268930557187 0 0 0
404 1 0.39885739420932964 0.9267061899473871 2.4047467582275734 0 0 0
405 1 2.161677491395111 16.52530260696198 1.4654884828105175 0 -1 0
406 1 2.543331999473094 0.8534799397303663 1.6794127837313904 0 0 0
407 1 3.031337585518364 0.29420202727213224 2.3837149943727605 0 0 0
408 1 1.8504197982215511 0.9493864775982775 2.9229420450943393 0 0 0
409 1 3.646433620181051 0.006387029630727813 0.860285877499865 0 0 0
410 1 4.100890325298054 0.8212108177161253 1.5168100004510419 0 0 0
411 1 5.016293226847121 16.559525466885155 2.402713526569529 0 -1 0
412 1 3.8564059523986605 0.5845769034875611 3.215807314910519 0 0 0
413 1 5.1517496150275255 0.3546406771280632 1.3652312287122543 0 0 0
414 1 5.962867059651082 1.1332672482184043 1.3852149743207818 0 0 0
415 1 5.977146719489659 0.4129150440951194 2.1796664197421007 0 0 0
416 1 4.741961615921924 0.7271057994811198 2.4734956953774305 0 0 0
417 1 6.687328291480059 0.40533001895626974 1.081008284622144 0 0 0
418 1 6.93331672778521 0.8637957689783649 2.093537814455405 0 0 0
419 1 6.6839818888675415 16.46376756178901 2.381642599746819 0 -1 0
420 1 6.7424633094772455 1.2018730794078303 3.0127989865362563 0 0 0
421 1 7.595216822017682 16.597596471917647 1.6713089111758943 0 -1 0
424 1 8.181754281675907 16.6811701638615 3.971115370075799 0 -1 0
422 1 8.973487473455886 0.5182835631778823 2.1749205097814155 0 0 0
423 1 8.21413119142619 16.584338268053305 2.4748479240649934 0 -1 0
425 1 10.536133362679617 16.282983673066113 1.6663794407734618 0 -1 0
428 1 9.978063650085831 15.991806037121215 2.588665442366116 0 -1 0
426 1 11.208576033157101 0.23154453198230288 2.092573404154963 0 0 0
427 1 11.316684295254742 15.811365683574488 2.3639488368136816 0 -1 0
429 1 12.250642132316365 16.551617375896495 1.4616301089204042 0 -1 0
432 1 11.898662379168902 0.8026706088387137 2.812093327452823 0 0 0
430 1 11.889412582204994 1.1565413296749987 1.8690678395364166 0 0 0
431 1 12.07167674149393 15.08396727348456 2.701207061714422 0 -1 0
433 1 12.19622889272531 16.47856720470914 2.47712089988277 0 -1 0
436 1 13.31914344863217 1.663054564444046 3.136674613875953 0 0 0
434 1 13.870188078334316 0.6572357212927522 2.472764396097264 0 0 0
435 1 14.08004758895872 16.73991217846424 3.2112638750220883 0 -1 0
437 1 15.586203287817225 0.7512180683548118 1.596342950351581 0 0 0
440 1 14.90594422760704 0.6707351828813876 2.355597106022609 0 0 0
438 1 16.628468162925188 0.7606440160585326 1.492687072006877 0 0 0
439 1 16.24082688125245 0.07608606706323957 2.3786708485866344 0 0 0
441 1 0.794414350873791 2.098949863426369 1.7986154221821162 0 0 0
442 1 1.4129085597966602 2.9139215759900536 1.823508905294523 0 0 0
443 1 1.0909022677699827 1.734876154475948 2.8397713322985205 0 0 0
444 1 0.7043065468255842 2.6931154604640333 2.852145795920283 0 0 0
445 1 2.2487091134334616 1.8715810405156401 1.9392618555413945 0 0 0
446 1 2.4928610780620466 2.7332794577138664 1.4340435847969923 0 0 0
447 1 2.9864622079941143 1.3295241164529634 2.7079001724715197 0 0 0
448 1 2.0961928353120904 2.6377492300449084 2.5480057646217533 0 0 0
449 1 3.430602418649186 1.5203298082006698 1.784985660821159 0 0 0
450 1 4.064454022467221 2.3658918032550083 1.6194152163303148 0 0 0
451 1 4.159864075182143 1.5470520749139987 2.665919133385846 0 0 0
452 1 3.082901561157061 2.3281371712373007 2.2521821178027106 0 0 0
453 1 4.93885120959281 1.7691577020309066 1.8010956496150652 0 0 0
454 1 5.389758902961497 2.890719492222475 1.7143657209059724 0 0 0
455 1 5.874457637199306 1.5893098971174218 2.309328202461914 0 0 0
456 1 5.07641667606413 2.349927711626224 2.7315782658637415 0 0 0
457 1 7.154186250837467 1.3360510897638989 1.0489689543245233 0 0 0
458 1 7.929074682630611 2.3048178078570385 2.7917089913302187 0 0 0
459 1 7.908030896324275 0.9990121417429824 2.6195164936506883 0 0 0
460 1 6.116549933349044 2.70599766560945 2.6749669964358342 0 0 0
461 1 8.713816143639367 2.0008427867111744 2.244833997598174 0 0 0
464 1 8.589082219456222 2.2366020698655356 3.7473034592162873 0 0 0
462 1 9.670506561166818 1.4748815577302006 2.185879828641156 0 0 0
463 1 8.987197391518812 1.1995550540278124 3.0163034241827447 0 0 0
465 1 10.188202465429246 0.7876483508767247 3.262446515896444 0 0 0
468 1 10.42342283535116 1.898894072113424 3.349935110643474 0 0 0
466 1 10.454584832758155 2.2975739530024515 2.275628376716209 0 0 0
467 1 11.076223993269263 1.5153184566135092 2.630684315119782 0 0 0
469 1 11.59516996363958 2.1012994377170138 1.7595303690873387 0 0 0
472 1 11.629000965569015 2.2514589718197264 3.013349089169529 0 0 0
470 1 12.3001479222758 2.945496908386348 2.2608889116048045 0 0 0
471 1 12.581669318454122 1.8707976979206915 2.403619733646075 0 0 0
473 1 13.520088263893474 1.647694656493877 1.9876540188453147 0 0 0
476 1 13.89715370705074 2.4564604893424167 2.7084484125318284 0 0 0
474 1 14.227393797371453 2.3663157583494816 1.674977514024486 0 0 0
475 1 14.411830833725823 1.58046676328848 2.5119283632052434 0 0 0
477 1 14.765207569295201 1.5082792316799647 1.2973085732798202 0 0 0
480 1 15.717086486918234 2.928011053820388 1.9989016858866469 0 0 0
478 1 16.536779256024182 2.2954504097778003 2.563167047738979 0 0 0
479 1 15.655945001699124 1.6627333437776965 2.096688626762868 0 0 0
481 1 0.15249259737361018 3.074130480553778 1.946266550366219 0 0 0
482 1 0.9887412888289936 3.9911844617919616 1.895673984556713 0 0 0
483 1 1.6326326876880322 3.5980927698601737 2.792467881799541 0 0 0
484 1 0.5545677109457244 3.7846168521452825 2.7898441133104 0 0 0
485 1 2.074102226420682 3.8351906642227047 1.6020948312390069 0 0 0
486 1 2.94829719498502 4.468033076360293 1.7074832276229495 0 0 0
487 1 2.7065577156656144 3.511186607468971 2.3941060257603732 0 0 0
488 1 2.283458664445467 4.410045462620587 2.6309018628642606 0 0 0
489 1 3.367347097535619 3.3556879113300875 1.6364565096504529 0 0 0
490 1 4.171681461472187 4.412943744692591 1.4288174878964064 0 0 0
491 1 3.971086900063607 3.0437362513545163 2.6092858967900137 0 0 0
492 1 3.710448019527724 4.12099613878142 2.345582854353569 0 0 0
493 1 4.52456128542568 3.433320792973765 1.6369675183395238 0 0 0
494 1 5.3682596543209975 4.105832709036019 1.4014132386308313 0 0 0
495 1 5.351300153483164 3.4884360059367614 2.573636113566376 0 0 0
496 1 5.0642776936265035 4.573798493406313 2.4548643376851063 0 0 0
497 1 6.496200570522321 3.390825173095427 1.8333352589499734 0 0 0
498 1 7.282529582184458 4.198622889416804 1.9687082072817015 0 0 0
499 1 7.828033091564848 2.9549790713546256 3.5570306487702363 0 0 0
500 1 6.218311802569137 4.2675295809688745 2.4535062439531714 0 0 0
501 1 7.258919720148656 3.0918760796989857 2.374441608862614 0 0 0
504 1 8.076588397447667 3.719851683191266 2.702066318469197 0 0 0
502 1 8.711136483053975 3.9401068163524293 1.6546645174114911 0 0 0
503 1 8.714597931690882 2.958148039235434 2.9997199332356055 0 0 0
505 1 9.591028701417931 2.3333091038477747 2.7678301068432605 0 0 0
508 1 9.370016605729058 3.477189652991224 2.2623480684149215 0 0 0
506 1 10.7417517281508 4.534771404335695 1.7424134869794474 0 0 0
507 1 10.801813301253436 2.8559802103192675 3.0550976754457766 0 0 0
509 1 11.323404703159493 3.1090700095613704 2.112808373315652 0 0 0
512 1 11.291914218919779 4.034959604160377 2.685826195559531 0 0 0
510 1 12.045791681711188 3.917276737028367 1.9153627634473933 0 0 0
511 1 11.866563583090697 3.2601496975135285 3.139349182991683 0 0 0
513 1 13.230064103479295 2.5572664914921486 1.5231733107555923 0 0 0
516 1 14.095416521845376 3.419229516256417 1.954802692625879 0 0 0
514 1 14.90097000517685 3.624870932556009 1.3522572525172276 0 0 0
515 1 15.034533303107763 2.480988809673717 2.8203526593275927 0 0 0
517 1 14.692735220913029 3.066462512056047 0.21316998687848954 0 0 0
520 1 15.819814351037243 4.232862977217741 2.4680671345287464 0 0 0
518 1 16.44231364789779 4.00327535486832 1.609125170321859 0 0 0
519 1 16.039416432457173 3.1359295042027244 3.1068428452189325 0 0 0
521 1 0.2859887441808716 4.898467754172897 1.511006468832837 0 0 0
522 1 1.1699646181044199 5.77759669455546 1.6613317193634143 0 0 0
523 1 1.1650193495516539 4.711691475902741 2.725983932837295 0 0 0
524 1 0.3947430196386378 5.526916341572259 2.6282197513932153 0 0 0
525 1 1.7563910501314475 4.859385264114872 1.8674630444696383 0 0 0
526 1 2.1909045674243073 5.882080572890717 1.5731451882537082 0 0 0
527 1 2.662589657979095 5.4516934768219825 2.4858199973078445 0 0 0
528 1 1.5345973162291997 5.822473879050918 2.6453737098929166 0 0 0
529 1 3.6342546790706716 5.146633027321914 2.1208100159762098 0 0 0
530 1 4.747843793733425 6.2750396606041 1.8035073704691387 0 0 0
531 1 4.565655521857153 5.554643237649651 2.622803923951572 0 0 0
532 1 3.6438095377094535 6.332108437049915 2.624834120673665 0 0 0
533 1 5.5351887399266895 5.141927473011969 1.631461239176762 0 0 0
534 1 6.31382240925812 6.163176362370048 1.780242769263628 0 0 0
535 1 5.395871012736914 4.058105835353287 3.428595559137216 0 0 0
536 1 5.618306911083143 6.1082866907796936 2.5897117153257185 0 0 0
537 1 6.614789518972222 5.1537024316119835 1.9041202801536041 0 0 0
538 1 7.435840382584993 5.64667151418692 1.6990210570765074 0 0 0
539 1 6.7794548745024965 4.777939855806873 3.477666269074353 0 0 0
540 1 6.777660574635127 5.798671805799322 2.84350555693732 0 0 0
541 1 8.48424635756141 4.778217619260509 2.1704086978883352 0 0 0
544 1 8.32206522396826 5.935116247607 2.210523047883848 0 0 0
542 1 9.408603368228702 5.824899956139179 1.7792038641772658 0 0 0
543 1 9.138421020080727 5.5510806742069105 2.777376727131062 0 0 0
545 1 9.495814643297253 4.712189128336018 2.051750955535476 0 0 0
548 1 10.092552304445505 5.961721531522128 2.5817272533438036 0 0 0
546 1 10.37761663122306 5.887391937535631 1.2967918691952671 0 0 0
547 1 10.888502524107329 5.045211467774721 2.7849967613226068 0 0 0
549 1 11.466793405357215 5.378972027152816 1.7159021166648365 0 0 0
552 1 12.013014637586428 5.920689613527907 2.6375693853318833 0 0 0
550 1 12.535606071587527 5.779255184564245 1.4004877700065506 0 0 0
551 1 13.056058517482109 5.472007348290178 2.8637894863805036 0 0 0
553 1 12.420317540969428 4.905399762534784 2.129104508931793 0 0 0
556 1 13.88707109445126 5.273648478309054 2.0422821140835583 0 0 0
554 1 15.309111359196582 5.967235054176152 1.0959972702416172 0 0 0
555 1 14.456271098978393 4.4662521202573995 2.5928914746472578 0 0 0
557 1 14.608478835146077 5.241720248492785 1.3011286102448594 0 0 0
560 1 15.27162067943622 5.471121304772097 2.3694919837687785 0 0 0
558 1 16.211349211874705 5.479767822366872 1.8957367176211248 0 0 0
559 1 16.78768728740387 4.571340232436032 2.622822563677649 0 0 0
561 1 0.1576625253171376 6.237452308273681 1.3693937308262019 0 0 0
562 1 0.9654100941946616 7.759858674898266 1.6103041007625476 0 0 0
563 1 0.7499819154316648 6.670066192724196 2.253416154150841 0 0 0
564 1 16.32815466958832 7.466062017188003 1.5303052699928053 -1 0 0
565 1 1.9590857198071485 6.897993473718092 1.5562176024171763 0 0 0
566 1 2.196611384248449 7.901024877511919 1.6402385455687625 0 0 0
567 1 2.4228169872550485 6.472218705150437 2.723064287370268 0 0 0
568 1 1.609471594527055 7.208098351269264 2.5131541157289896 0 0 0
569 1 3.5638878650176804 6.3613016356367345 1.429049972416378 0 0 0
570 1 4.2256678610854355 7.128283301683868 1.7707498705409315 0 0 0
571 1 4.591261246456715 6.857096103446797 2.7000528258288634 0 0 0
572 1 3.0944738657234283 7.363016193448219 2.418156175663706 0 0 0
573 1 5.369544636977246 7.077413305153124 1.815302845127749 0 0 0
574 1 6.030275660637093 7.94450359996532 1.7497269343602009 0 0 0
575 1 6.523447883703595 6.866539405035685 2.6525954532748703 0 0 0
576 1 5.6011333522398585 7.811793825328289 2.7211401965695248 0 0 0
577 1 7.139563749304304 6.948097946659257 1.8485692472811193 0 0 0
578 1 6.972062870453203 7.963708163737529 1.405237386910555 0 0 0
579 1 7.730332127425348 6.81857932404819 2.8104999518812352 0 0 0
580 1 6.619782730095496 7.916309598524423 2.552976745092434 0 0 0
581 1 8.275886092439128 6.93775228730519 1.8052586818378908 0 0 0
584 1 7.754601151349697 7.781405668679507 2.25389674190504 0 0 0
582 1 8.917340874040695 7.838612213397643 1.6209839331636575 0 0 0
583 1 9.315271770752611 6.657378737458467 2.475763747292599 0 0 0
585 1 9.76782396757284 6.649831739788124 1.0066201621903557 0 0 0
588 1 9.866861410750147 7.540779478847237 2.0084429095499226 0 0 0
586 1 10.665291548682509 6.824900831311808 1.55500953218892 0 0 0
587 1 11.110540529760975 6.279855163341493 2.2565323360770084 0 0 0
589 1 11.898995817105659 6.541880320133389 1.6214350009955145 0 0 0
592 1 11.209831892885283 7.31778097515343 2.2281924300255724 0 0 0
590 1 12.078506343384381 7.538070474413031 1.5776597099479155 0 0 0
591 1 12.064363155144799 6.924009511302871 2.6004650947005348 0 0 0
593 1 12.975743471598413 6.347326623245496 2.207590010282469 0 0 0
596 1 13.000113067155736 7.464664227354066 2.349932396625121 0 0 0
594 1 14.034576070019334 7.259258323717732 1.6969881057274092 0 0 0
595 1 14.592368092866318 6.200345849456313 2.040697157289058 0 0 0
597 1 15.623606543508254 6.720904617458162 1.8988975534645265 0 0 0
600 1 14.896532837927554 7.066341542961016 2.520401958136789 0 0 0
598 1 14.785757638569498 6.832391827007783 1.169697435990621 0 0 0
599 1 16.594144687943388 6.340741076431039 2.3786729379674565 0 0 0
601 1 16.554868919059107 8.454457605113769 2.0153019394013 -1 0 0
603 1 0.8173705523328233 8.452757636224634 2.3506029929845393 0 0 0
605 1 1.5884744865685863 8.776344837181595 1.7599261434259486 0 0 0
607 1 2.566949315978122 8.345953146248005 2.647750444011564 0 0 0
609 1 3.601982184391992 8.009094466688609 1.552730232800771 0 0 0
611 1 4.091653753743084 7.827441511266132 2.5388627129106625 0 0 0
613 1 4.940535549463704 7.977864881177731 1.6625698817245338 0 0 0
615 1 6.18868941857288 8.822565391428807 2.8330101435651582 0 0 0
617 1 6.725132266623626 9.072778446900362 1.7534356398029813 0 0 0
619 1 7.542177591297324 8.877155257110163 2.510604932113632 0 0 0
621 1 8.15023978111424 8.458794076133609 1.6077270158685992 0 0 0
623 1 9.338150225440378 8.561854675387297 2.5665127346812304 0 0 0
625 1 9.995322315095438 8.546325303587302 1.3441170287815465 0 0 0
627 1 11.113187281843956 8.38927053554022 2.0132860071749703 0 0 0
629 1 11.731550594867345 8.572253431126606 1.1088654237554612 0 0 0
631 1 12.210610447011774 8.206630930762785 2.3562945676609313 0 0 0
633 1 12.851640015507376 8.327702749940114 1.518733684625477 0 0 0
635 1 13.69435658950631 9.013227151445006 1.5677628968397133 0 0 0
637 1 15.16181264954936 7.852970083926533 1.8379896646260565 0 0 0
639 1 15.872661972095143 7.712559966370797 2.523975887425893 0 0 0
602 1 0.5327852772194321 9.192867037483342 1.5320787762153714 0 0 0
604 1 16.783141630743035 9.282866033849322 2.543960665226223 -1 0 0
641 1 16.319848362539048 9.425846172833852 1.5956700676768307 -1 0 0
643 1 1.0393171135947277 9.61519141445795 2.3551617685028146 0 0 0
606 1 3.1531647277121424 8.985645941253644 1.8715616199009748 0 0 0
608 1 2.3997359481276646 9.387496724600346 2.609731008558593 0 0 0
645 1 2.056836136442144 9.942761412786867 1.6241752281827326 0 0 0
647 1 3.2769386978130974 10.184706030351833 2.223009346097002 0 0 0
610 1 4.299420435806251 8.885778668603706 1.2939271451342804 0 0 0
612 1 3.380288145252261 9.270277473963151 2.8607969178070634 0 0 0
649 1 3.6744980444840687 9.925531807821345 1.3151251805761586 0 0 0
651 1 4.320054065668603 9.514729991021548 2.199275618003722 0 0 0
614 1 6.592154880827165 9.816455020162326 2.483751289860751 0 0 0
616 1 4.924385431383737 8.630984708550045 2.5723624735819857 0 0 0
653 1 4.954950865777816 9.759669101338604 0.8503679217216591 0 0 0
655 1 5.554281242178357 9.686898939588154 2.623639973957588 0 0 0
618 1 7.665453825940653 9.37649294010378 1.4861494582393968 0 0 0
620 1 6.00868430387565 10.404738945719673 3.234344217261344 0 0 0
657 1 5.989927931029659 9.773210135285415 1.4313026841044074 0 0 0
659 1 7.942576406389421 9.926876470219106 2.6509259789820936 0 0 0
624 1 9.001492843108016 9.597267554057302 2.5555766414853576 0 0 0
661 1 8.5185199130495 10.140323851522787 1.4525527952524908 0 0 0
622 1 9.165285617148152 8.993763072721238 1.6274322985032517 0 0 0
628 1 9.933303893477706 9.779441786943002 2.985923535527164 0 0 0
663 1 8.352642247446315 10.90939624524708 2.3325337165978053 0 0 0
665 1 9.931900955412859 9.784102850787077 1.8690139555932967 0 0 0
626 1 10.893996247814298 9.487131592350474 1.5749730837899971 0 0 0
632 1 11.56698831711714 9.07126579040454 2.7544302874268554 0 0 0
667 1 10.947061101989979 10.148463505855759 2.3952077256208515 0 0 0
669 1 12.016986604521927 9.873190070743194 1.6172970940914178 0 0 0
630 1 13.000372828092367 9.479466826832152 1.0742703647544916 0 0 0
636 1 13.801476241568745 9.373018333034683 2.6783971664534993 0 0 0
671 1 12.56430849082704 9.129686953533623 2.0735042256738265 0 0 0
673 1 13.861908830869044 10.229755235705445 0.7891916758471713 0 0 0
634 1 14.428632177423026 9.754828160217512 1.7380225730077759 0 0 0
640 1 15.844157169915533 8.707416388574043 3.16224503957361 0 0 0
675 1 13.569370909521826 10.45674654590128 2.844163438593127 0 0 0
677 1 14.669388454527704 10.763959691272289 2.2259820052661596 0 0 0
638 1 15.60425405950625 8.733737869033693 2.1649255772169287 0 0 0
679 1 15.880631044382845 9.844614331933684 2.5846626952997434 0 0 0
642 1 0.9246418275585198 10.650261675422803 1.654873583470348 0 0 0
644 1 16.31024958189967 10.736837317201829 1.067477489927876 -1 0 0
681 1 16.29165114079632 11.879741582491626 0.7696928201504332 -1 0 0
683 1 0.07398256245573459 11.54766215662285 1.5977481467856303 0 0 0
646 1 2.632767148715827 10.772406026475863 1.2952252549558103 0 0 0
648 1 1.649884891706545 11.367707571641986 1.6241347439773932 0 0 0
685 1 0.8419019154629392 11.855987037897568 2.0899927999315424 0 0 0
687 1 2.2594340513023776 12.322099271087819 1.7773490179250493 0 0 0
650 1 4.761543222747241 11.141091823880865 1.0252899746577893 0 0 0
652 1 3.7864813003601334 11.128897369535126 1.7650614310017054 0 0 0
689 1 3.0858043719682935 11.783965735867696 1.0632704493996465 0 0 0
691 1 3.7709788672288638 12.242335986768811 1.7205527364050879 0 0 0
654 1 6.070109184690197 10.88920642854156 1.6827732229429369 0 0 0
656 1 5.1238088461140014 10.291537871332453 1.864863450868409 0 0 0
693 1 4.697925268239833 11.607097598434825 1.9254569138355035 0 0 0
695 1 6.811296571832493 11.17314652911141 3.7746832985218326 0 0 0
658 1 7.180898851254437 10.169547255534953 1.5930715710558194 0 0 0
660 1 7.252847404220736 10.723760620566273 2.5458560746253562 0 0 0
697 1 6.600335172554595 11.806939943728416 1.623346986828477 0 0 0
699 1 7.17238619930421 12.960773417386015 1.4776638321843314 0 0 0
664 1 7.503577341975655 11.695598953132153 2.438123705766655 0 0 0
701 1 8.237483615800267 12.150685017549897 1.7376911766978322 0 0 0
662 1 8.759438115310749 11.179404679116276 1.4171545281633753 0 0 0
668 1 9.557436227559714 10.602084822981146 2.4547546254058217 0 0 0
703 1 8.997726059841893 11.683150407458804 2.3565323449393483 0 0 0
705 1 10.677847555357173 12.274052513092892 1.5378143693518194 0 0 0
666 1 10.823362028266715 10.60692431497527 1.5288568803251072 0 0 0
672 1 11.60439014414287 10.950121846580474 2.0223231820328436 0 0 0
707 1 10.671256409933397 11.343326029243519 2.3415484012285255 0 0 0
709 1 11.546542817047028 11.662465077871119 1.2292667941671471 0 0 0
670 1 12.498104919097136 11.405030991389806 1.6911112503596601 0 0 0
676 1 13.58330505884424 11.827321631783565 2.595870690085424 0 0 0
711 1 12.42104448269745 12.128001678993611 3.0221245170381312 0 0 0
713 1 14.063162978708377 12.222128414859384 1.6838465958552766 0 0 0
674 1 13.593144155968787 10.981129301200674 1.8857050169165785 0 0 0
680 1 16.02762298564673 10.874467919412211 2.4908523766896677 0 0 0
715 1 14.573344264404108 10.509694176847933 3.1891933553040097 0 0 0
717 1 14.794393187355706 11.882534048642007 2.398994788885248 0 0 0
678 1 15.306338108104 9.76660986488284 1.1971398387756544 0 0 0
719 1 15.957968675915597 11.939468276116676 2.4091643523901736 0 0 0
682 1 0.6615166151077683 12.622372882271751 1.2967008878250623 0 0 0
684 1 0.2967329800536078 12.651040069729047 2.6361953067368473 0 0 0
721 1 16.321948105628106 14.215168227313917 1.6543999968783372 -1 0 0
723 1 1.1358123256735453 13.989872275581394 2.397863246738161 0 0 0
686 1 2.5244986200860766 13.561725301208988 0.8017163606265321 0 0 0
688 1 1.309293472232672 12.86396380598509 2.171259746796302 0 0 0
725 1 1.4951878164854169 13.795809323273316 1.3921723531195789 0 0 0
727 1 2.1769509853998077 13.655790158958908 2.3517144257820957 0 0 0
690 1 4.740877830281525 12.26711324451243 0.8746976721653978 0 0 0
692 1 3.0739228528265086 13.157612834377701 1.551965237498819 0 0 0
729 1 3.4242866362452813 14.24349255693321 1.1923124778742835 0 0 0
731 1 4.0091510926798435 13.370359370108812 2.18499920193141 0 0 0
694 1 5.8133178342404355 12.405056879716257 1.7986474958279834 0 0 0
696 1 4.801540893819872 12.750306300851031 1.9757532175906705 0 0 0
733 1 5.30311958404886 13.40673795833161 1.4113356886018218 0 0 0
735 1 6.19679708716918 13.582194508090932 2.209041256974831 0 0 0
698 1 7.379239018317637 13.713381523190414 0.8706408734776134 0 0 0
700 1 6.179847108090903 11.527951196495225 2.5480471201305916 0 0 0
737 1 6.369096429649081 13.560739947748397 1.1691827149777863 0 0 0
739 1 7.5970234014129465 13.403124998089089 3.2595049305048476 0 0 0
704 1 7.475618622669621 13.616868328965108 2.2201139890977215 0 0 0
741 1 8.660373432121098 13.878813891790685 2.6989497854082414 0 0 0
702 1 9.87436346678412 13.994001912390647 0.7778049501404803 0 0 0
708 1 10.122903594251941 12.319498775588137 2.4424106236225698 0 0 0
743 1 8.901217846310374 12.784749784120562 2.314070257768458 0 0 0
745 1 9.076956735702694 13.700419222630375 1.7203772424451944 0 0 0
706 1 10.077799684050426 12.47676808986824 0.575348862602577 0 0 0
712 1 11.91948252026842 12.366960139355895 2.081409011048315 0 0 0
747 1 11.021079745832468 13.140531162698958 2.3145193808169906 0 0 0
749 1 11.61455624451638 12.67826842514384 0.902987473531135 0 0 0
710 1 12.970248727520843 12.331583381911004 1.297144295529095 0 0 0
716 1 13.98120791657535 12.908833818414607 2.631464860511971 0 0 0
751 1 12.955010408760836 13.313729920761274 3.0928681755349032 0 0 0
753 1 13.764429675452117 13.958719086151465 2.444665568170091 0 0 0
714 1 15.191077427871273 12.800983566392544 2.2561563550096664 0 0 0
720 1 15.445173391960985 11.049835692759045 3.458946746030966 0 0 0
755 1 14.72965405648025 13.889693740558084 2.776941983770113 0 0 0
757 1 15.456019280898264 13.563578601028238 1.571053084648576 0 0 0
718 1 15.545141830820178 11.031349899911083 1.669007768506422 0 0 0
759 1 16.095764281788547 13.368388874112771 2.451952778854375 0 0 0
722 1 0.5934534114076014 14.438566853695914 0.9382615519816649 0 0 0
724 1 0.15398546806848995 14.036219429030394 2.7396516084155498 0 0 0
761 1 0.38856440029925854 15.350005635236103 1.395914453248958 0 0 0
763 1 1.0654117514544268 15.504593161528604 2.2730576756901475 0 0 0
726 1 2.4374551866308654 14.305664588135462 1.6159471756073378 0 0 0
728 1 1.872116142594869 14.854736594209005 2.468622711822697 0 0 0
765 1 1.4034401302001274 14.800136202529638 1.555098465812239 0 0 0
767 1 2.8835814613414765 15.153142744088381 2.4133916716649173 0 0 0
730 1 4.583074047287303 14.221949918985997 1.5037182318712414 0 0 0
732 1 3.566076814871273 14.306673255241346 2.2097986522509876 0 0 0
769 1 3.283684448025558 15.276525339297661 1.3428490597406488 0 0 0
771 1 3.979062563566626 15.406249564820868 2.3607232640167783 0 0 0
734 1 5.58897707241267 14.458553037599717 1.3996459073191405 0 0 0
736 1 5.102292193647215 13.806549368230256 2.4285739058800693 0 0 0
773 1 5.044735034547808 15.362080183367938 1.8455287935484 0 0 0
775 1 5.964773689316917 14.645349135140162 2.5336157879417796 0 0 0
738 1 7.931294024213655 14.339946831387492 1.6134134051160565 0 0 0
740 1 6.841377892368635 14.055113844698852 3.044684128173214 0 0 0
777 1 6.868539640540245 14.439188859069686 1.796200877829968 0 0 0
779 1 7.876418724412532 14.44203084930048 2.84151272130866 0 0 0
744 1 9.676196182138725 13.403891934584367 2.6948698770598147 0 0 0
781 1 8.747424790024226 14.900195438933896 2.478814115194717 0 0 0
742 1 9.838714143892389 14.495285139773678 1.9865115668997402 0 0 0
748 1 10.143770476854558 13.35199104979499 1.6662377229787406 0 0 0
783 1 8.565223073632316 15.078382767570204 3.588795061218874 0 0 0
785 1 10.914117293380128 14.045466479939765 1.5216805291742033 0 0 0
746 1 10.809256683176816 13.707503867672258 0.35497243723155664 0 0 0
752 1 11.778534688225456 13.332297893786292 1.7372688586832346 0 0 0
787 1 11.47980972788431 14.087628394946284 2.572013638994452 0 0 0
789 1 12.59622392750713 14.325440272261579 1.5003905729580338 0 0 0
750 1 12.914845967307018 12.99280561884487 2.0917839645391774 0 0 0
756 1 13.144413566936498 15.233017370020018 2.6265091193032073 0 0 0
791 1 12.518126595238702 14.101114321208604 2.55892911425488 0 0 0
793 1 13.317773895299187 15.253644991926912 0.9049019907305238 0 0 0
754 1 13.907779932698654 15.216970310783902 1.8913893340431394 0 0 0
760 1 15.622881824876695 14.350932016073898 2.40668044422648 0 0 0
795 1 14.613875668888653 15.049491709205045 2.672644214557044 0 0 0
797 1 14.979862632058815 15.498844276986802 1.8618042977967422 0 0 0
758 1 15.910097296218993 15.343892875744434 1.354757965017506 0 0 0
799 1 0.160712318360939 15.059762672654081 2.4731375082738865 1 0 0
762 1 1.3466472606375255 15.851493010274414 1.3902451707395929 0 0 0
764 1 0.4750171491511446 16.50183388257095 2.424298523223483 0 0 0
766 1 2.2899743722641284 15.370157543951812 1.653120835817375 0 0 0
768 1 2.196302848549535 16.00701871958676 2.5439786350397005 0 0 0
770 1 4.193615730587184 16.325384935513284 1.6910499122395728 0 0 0
772 1 3.046212623549315 16.119556900388815 2.0929065448174677 0 0 0
774 1 5.92118024972873 16.12496732831766 1.7993099584198122 0 0 0
776 1 5.061827363465723 15.832369584944454 3.1432352390386717 0 0 0
778 1 6.819158929591002 15.665678060980603 1.6303587483332935 0 0 0
780 1 6.737194466977421 15.297282776574153 2.6271875922170453 0 0 0
784 1 7.647530372690215 15.624782529493178 3.157502629621489 0 0 0
782 1 9.45677013198619 15.793368415834518 1.5981604237762905 0 0 0
788 1 10.610581905492957 15.221250701825856 1.6174076194988245 0 0 0
786 1 11.564263077393395 14.811918048543436 1.727697678117568 0 0 0
792 1 11.607733941651723 14.771115486943684 3.597023283180365 0 0 0
790 1 12.413829360154487 15.51176069387317 1.6630703122865518 0 0 0
796 1 13.918122186794868 16.169975468701253 2.4451987099462227 0 0 0
794 1 15.304428462568117 16.52723812131368 2.185041760807651 0 0 0
800 1 16.02894047996144 15.826015284501894 2.409374686534099 0 0 0
798 1 16.494300716830725 16.176111753442616 1.5747164742488662 0 0 0
801 1 0.023730935545952056 0.12026739286318125 3.9627947194788744 0 0 0
802 1 0.9115116433883329 0.6294201588157198 3.363266507819269 0 0 0
803 1 0.8481650017864725 16.355901877798452 4.1059604308337825 0 -1 0
804 1 0.2423310142467561 1.1082913289496672 4.031329771153228 0 0 0
805 1 1.5084916756262041 16.539993875644246 3.324764151435258 0 -1 0
806 1 2.9448509246135144 0.6382066022807223 3.5270216623108617 0 0 0
807 1 2.7393638969336536 16.760226297272148 4.647088046853045 0 -1 0
808 1 2.036702665987179 0.7377900224923138 3.943208411374393 0 0 0
809 1 3.5853781085462604 16.04679058851787 5.274280952904233 0 -1 0
810 1 4.282711311990782 0.8019062442637309 4.163209340250651 0 0 0
811 1 3.7002383647406356 16.70256481259748 4.063130508570404 0 -1 0
812 1 3.281772292480726 0.8841576982750193 4.542138413274595 0 0 0
813 1 4.800879764943625 0.10503892692335504 3.298318482365336 0 0 0
814 1 5.8350614707113495 1.9184829659982392 3.340961486910103 0 0 0
815 1 5.6679075048829075 0.8307404756853972 3.1443415405896387 0 0 0
816 1 5.571473131229314 1.8271172815488292 4.678554446151015 0 0 0
817 1 7.226773221825394 0.27494545089557487 2.968943221519689 0 0 0
818 1 7.316026984329434 0.715531981908984 4.3465996840731815 0 0 0
819 1 7.9580455000712345 16.63594613116712 4.986207076814021 0 -1 0
820 1 6.561205486687558 0.19219813731768473 3.9702401843033104 0 0 0
821 1 8.46679326539975 0.7086051258349447 4.677285174904192 0 0 0
824 1 7.869792453694251 1.5113216699590513 5.168486534830392 0 0 0
822 1 9.189138913884129 16.760832076777938 3.072264991159561 0 -1 0
823 1 9.610280176589171 0.9470593471981037 4.944503014330363 0 0 0
825 1 9.41094740962016 0.814737956270187 3.9167472723441414 0 0 0
828 1 10.70865524263394 0.5565716516620505 4.305358332653153 0 0 0
826 1 11.068320267537715 0.20367329241235507 3.314324158348747 0 0 0
827 1 11.61504166884498 16.524205884636793 4.143845640562913 0 -1 0
829 1 11.937105396214832 15.880997060799565 3.2590935255668856 0 -1 0
832 1 12.688784323697616 0.41845435496194444 3.487143745679432 0 0 0
830 1 13.479201343613134 0.2341072622761825 4.251957737996732 0 0 0
831 1 12.488892583206619 0.1682397985062639 4.814414176557286 0 0 0
833 1 13.971910244953786 15.487251812269065 3.3722466954500185 0 -1 0
836 1 14.233551395388178 1.0783390477081494 4.5415517713855555 0 0 0
834 1 14.171150935402617 1.0862991831166608 3.4313207840683058 0 0 0
835 1 14.452600592431844 16.530466320937123 4.182514782569701 0 -1 0
837 1 15.563305247496272 0.10089968449649708 3.2045893898376274 0 0 0
840 1 15.113977797992405 0.6429434329190972 4.0697220736041375 0 0 0
838 1 16.450370094379156 0.721187968138572 3.2164712267624185 0 0 0
839 1 16.04745313854376 1.0488648755063013 4.157575218957621 0 0 0
841 1 0.1271092706622058 2.042873339554485 3.449316594389481 0 0 0
842 1 2.5112791628600446 3.503590357592906 3.453907286546198 0 0 0
843 1 1.019697285879823 1.9016795866799299 3.9730382495261067 0 0 0
844 1 0.48595653829013147 2.656257180663881 4.56092260718911 0 0 0
845 1 1.9444062749361835 1.9748367801049058 3.3738564099897936 0 0 0
846 1 3.840108033054924 2.727887986208653 4.216840725816672 0 0 0
847 1 2.5838114859902905 1.652699072140766 4.240717362402858 0 0 0
848 1 1.260673694157579 2.980953800124142 3.7786026071347925 0 0 0
849 1 3.6408667447145087 1.51073092480466 3.7001173984297897 0 0 0
850 1 4.585314798912786 3.4398374020058293 3.4996136139530853 0 0 0
851 1 5.377110419738716 0.8900222848460594 4.143171539334981 0 0 0
852 1 4.038329196505584 2.3704191858690846 3.3172364133729446 0 0 0
853 1 4.7314173431948845 1.5151987528926703 3.4627705940738336 0 0 0
854 1 5.825386762016514 3.1162934732729037 3.59430129843639 0 0 0
855 1 6.287792552339616 2.5094632844917792 4.380358782661246 0 0 0
856 1 4.963674969293317 2.445291980594597 3.908263619808188 0 0 0
857 1 6.417480644017815 1.3209020948255854 4.071310545727152 0 0 0
858 1 7.5873962624863225 1.5401970984834858 3.600223550790363 0 0 0
859 1 6.886105676744296 1.8153297380974853 4.78998640813393 0 0 0
860 1 7.843095743871783 2.241351065587783 4.477852783689883 0 0 0
861 1 9.006014887568288 1.559919736211103 4.5186642827248455 0 0 0
864 1 8.869235947607768 2.2383401842939357 5.288994959446822 0 0 0
862 1 9.630949643372825 2.340808509162267 3.9496295465233926 0 0 0
863 1 9.84500681207285 1.9664947469760068 5.308179885731103 0 0 0
865 1 10.445658779011145 1.6447735827490693 4.551642905675137 0 0 0
868 1 10.740156459258841 2.6968793971059313 4.989959314864661 0 0 0
866 1 11.065473167377965 2.5156896801705715 3.9611723478405763 0 0 0
867 1 11.141714240894375 1.2037018357860634 3.668637610593808 0 0 0
869 1 12.297749036823207 1.5149755858244678 3.4164299271225698 0 0 0
872 1 12.036946070695258 2.327706839012888 3.9925718207941077 0 0 0
870 1 12.890209237763681 2.5852491674476163 3.2977439502548638 0 0 0
871 1 13.250457904194628 1.2520880575696716 4.153197825932353 0 0 0
873 1 13.259232585913498 2.3180719215643957 4.3400284528824695 0 0 0
876 1 14.027289186568428 2.8550468127633724 3.7181582586971595 0 0 0
874 1 14.734081446985616 2.0394563419955993 3.8844572193541644 0 0 0
875 1 14.957240396682003 1.5728486152032353 5.308118477942798 0 0 0
877 1 15.55837510191704 1.195492839071498 3.163717115361444 0 0 0
880 1 15.521793007992466 2.680195753149728 4.622238642992637 0 0 0
878 1 15.797006012104937 2.1276633058003247 3.6277543326513335 0 0 0
879 1 16.51201215556896 2.004624273771823 4.376136534558291 0 0 0
881 1 0.1993592735170601 3.354229538352103 3.650013613318784 0 0 0
882 1 1.4835131859714672 4.047099190934532 3.6641890237697528 0 0 0
883 1 0.7511175387683405 3.8234672965451555 4.531846355668905 0 0 0
884 1 16.63476143993074 4.378261020221392 4.5126224704161695 -1 0 0
885 1 2.962626389787526 2.187493990390796 3.2113293889251917 0 0 0
886 1 3.0790267674848746 4.6594283388871975 3.236392229369538 0 0 0
887 1 3.0804697915976145 3.4231601424548366 4.8262970631178606 0 0 0
888 1 2.463149879675273 4.303897706293154 4.123765082158578 0 0 0
889 1 3.6259503330398855 3.748371085731244 3.5259618525192717 0 0 0
890 1 4.27084205613288 4.541886958698686 3.159334320099633 0 0 0
891 1 4.057105400530897 3.668610096942449 4.594336875094015 0 0 0
892 1 3.4694239345643356 4.486559055740574 4.488818043295651 0 0 0
893 1 5.40264165667303 3.222932959683688 4.546522631708387 0 0 0
894 1 6.664455686712476 3.520986844194233 3.1060402924521746 0 0 0
895 1 6.187073300490236 3.831479924809859 4.320875321450363 0 0 0
896 1 5.206542756986991 4.221876371455263 4.468737300628938 0 0 0
897 1 6.948637028459115 2.460482897828911 3.25864130089226 0 0 0
898 1 7.99769419346359 4.235113282638705 3.5838551432499 0 0 0
899 1 8.594266187994535 3.3085604610610106 5.149187319411276 0 0 0
900 1 7.864527052195269 5.012635547082418 4.2269669160002135 0 0 0
901 1 8.455410236140125 3.489578630217377 4.118744141824276 0 0 0
904 1 8.881936414582045 4.570477780669788 4.409998415934634 0 0 0
902 1 9.049684120535014 4.116008245500843 2.970457803241425 0 0 0
903 1 9.733115452196758 3.1081778756752954 4.633745555008148 0 0 0
905 1 9.760456020391453 3.2292998932029056 3.1460832933826497 0 0 0
908 1 9.683239267226787 3.9699431808110845 3.8698744271295578 0 0 0
906 1 10.28743510177735 4.079290141261076 2.8073105638177958 0 0 0
907 1 11.544711793631695 3.2816978392463882 4.321575914625596 0 0 0
909 1 10.59070290845583 3.5104649207520957 4.001271689544916 0 0 0
912 1 11.727475115838244 4.162511625344673 3.6553619048988377 0 0 0
910 1 12.447477076417421 4.003880748537716 2.8107776916899567 0 0 0
911 1 12.52418398625322 3.388767103094312 3.921824505409717 0 0 0
913 1 13.387665119170197 3.4494581237305955 2.7976675549607943 0 0 0
916 1 13.767814785785975 3.9627932183111447 3.724382046534619 0 0 0
914 1 13.864752738221778 4.949094005094293 3.4344813536175463 0 0 0
915 1 14.52395266286108 3.4485555548054156 2.945996210319006 0 0 0
917 1 15.271825642179747 3.215582688888612 3.788054294792604 0 0 0
920 1 15.491182874712786 4.151330495829358 4.749998303579574 0 0 0
918 1 16.248302841077262 4.212431259221949 3.43962191010626 0 0 0
919 1 16.206763964031904 3.469073837369864 4.29497510730911 0 0 0
921 1 0.4771039117596312 4.603615243886042 3.662343397663531 0 0 0
922 1 0.9107643061404436 5.693783252975971 3.5179349135609765 0 0 0
923 1 1.3584358849423641 4.762697062385691 4.586270643788168 0 0 0
924 1 0.6700922890170758 5.451861088592511 4.5412581372575485 0 0 0
925 1 2.0221579409523174 5.151975034578973 3.362857332760562 0 0 0
926 1 2.6447710695347433 6.2031100343487315 3.704283242881532 0 0 0
927 1 2.9351013444945253 5.3500899929867805 4.21723473440166 0 0 0
928 1 1.866869879241304 6.010368535484904 4.364939745068605 0 0 0
929 1 3.5711151132581183 5.518316234230612 3.3205361744432236 0 0 0
930 1 4.440845941494693 6.035623744919489 3.5291131783584095 0 0 0
931 1 4.394200896436268 5.482118315494349 4.473652659103525 0 0 0
932 1 3.611406806271453 6.156375667399354 4.410002306169639 0 0 0
933 1 5.123900837949078 5.2227561791309185 3.6222802011888153 0 0 0
934 1 6.183451977863068 6.165641392498942 3.8271828337596854 0 0 0
935 1 6.014196350169436 5.041477875645992 4.208772208710718 0 0 0
936 1 5.298482704308126 5.975714604943083 4.375918380202097 0 0 0
937 1 5.831830294938846 5.077511587476576 2.965931243679881 0 0 0
938 1 7.640382836611948 5.943849788463424 3.5631243585571526 0 0 0
939 1 7.767706755337029 3.985167314783895 5.062816974723637 0 0 0
940 1 7.0418488109618105 5.809543430845036 4.377219686265913 0 0 0
941 1 7.741961739598754 5.114572335383039 2.8182017285155947 0 0 0
944 1 8.296843097390813 5.965760235526657 4.343698372662151 0 0 0
942 1 9.42056399625838 5.8518451734176695 3.633679287235727 0 0 0
943 1 8.576699701905929 5.064543902173731 3.466020021030228 0 0 0
945 1 9.888862266639496 4.947999880645501 3.2262854490786568 0 0 0
948 1 9.830110016838733 5.0420019808070435 4.228789446843021 0 0 0
946 1 10.499730005333396 5.69999248180677 3.5723998321106087 0 0 0
947 1 10.738367172794607 4.692508258648252 3.852651028605708 0 0 0
949 1 12.175291633231222 5.020835875354135 3.1663420714433688 0 0 0
952 1 11.391407234322326 5.627311120061078 3.9696664041262917 0 0 0
950 1 12.515292782448457 5.974533365628148 3.685137940665404 0 0 0
951 1 13.382420669357142 5.304987079660217 4.299424907327545 0 0 0
953 1 13.393477838254318 4.456842622965801 2.2746423678938292 0 0 0
956 1 13.501687813452943 6.363595708252106 3.8479509375416305 0 0 0
954 1 14.209366419482183 5.941861512179511 3.088607441604877 0 0 0
955 1 14.728469520314029 4.483772334074133 3.918438277906641 0 0 0
957 1 15.40252180824702 4.884544887235204 3.2045598305773044 0 0 0
960 1 15.224236604605847 5.845888322402107 3.683990323068487 0 0 0
958 1 16.282209163586682 5.516403407250173 3.093517195382999 0 0 0
959 1 16.100574603279266 5.17612548339623 4.075826274855082 0 0 0
961 1 0.13257404796435623 6.423683107126913 3.374504060489347 0 0 0
962 1 0.7893587691267278 7.437815924331634 3.2542444672439754 0 0 0
963 1 0.9671041571045462 6.607077702346819 4.1817909643183855 0 0 0
964 1 0.11097909720298486 7.184337999459372 4.232088971927588 0 0 0
965 1 1.5974335222709088 6.678370746476884 3.397971501479654 0 0 0
966 1 2.4450246231978436 7.412669307917639 3.3601411510618977 0 0 0
967 1 2.566904408795977 6.976724746855339 4.496474088117857 0 0 0
968 1 1.6281030915734258 7.43033556721991 4.0254514996224255 0 0 0
969 1 3.4391402911932456 6.9828607291256946 3.4305444574057593 0 0 0
970 1 4.51721452809033 7.654201301863338 3.653462698262671 0 0 0
971 1 4.664296467418304 6.837151522891117 4.457269449169608 0 0 0
972 1 3.7624364123025575 7.2671961424309535 4.639021660730004 0 0 0
973 1 5.530710106364621 6.9609961573590455 3.3679078942686638 0 0 0
974 1 6.35117292185488 7.729989736328376 3.6642787130907184 0 0 0
975 1 6.362388663601031 6.958990202650632 4.464740173544166 0 0 0
976 1 5.403199074816641 7.8218136431839005 4.208204768843909 0 0 0
977 1 7.051492317272674 6.715634487520019 3.65020893245926 0 0 0
978 1 7.4627595567528395 7.690914149955296 3.3302970729224257 0 0 0
979 1 8.141682238019296 7.270267658409921 4.021180761679861 0 0 0
980 1 7.078104679044822 7.761885749429676 4.503574363709603 0 0 0
981 1 8.7041844971493 6.867319487384846 3.307890638909161 0 0 0
984 1 8.827561240962806 7.96512326048521 4.290471859640918 0 0 0
982 1 9.454489760925131 7.668462327222764 3.2682680561026305 0 0 0
983 1 9.184184656451569 6.939415830050004 4.418221278166824 0 0 0
985 1 10.005090241084506 6.822584324509446 3.7767409205990066 0 0 0
988 1 10.467016189874053 8.279537919146744 4.007537199692077 0 0 0
986 1 10.515387180221712 7.313867709091815 2.966172713189425 0 0 0
987 1 10.54385506406099 6.359252229477294 4.511294613701739 0 0 0
989 1 11.30234864238512 6.566659603199556 3.397672071871661 0 0 0
992 1 11.193240752348455 7.361555935671083 4.006711930183827 0 0 0
990 1 12.211153712356916 7.678521007760375 3.3204467968817872 0 0 0
991 1 12.661343432455691 7.077657330360842 4.241425939560536 0 0 0
993 1 12.908243367970835 6.903578384209474 3.236110362224873 0 0 0
996 1 13.363865067479487 7.84252756538797 3.8886550927710255 0 0 0
994 1 14.10428735086017 7.752255514933536 3.039685375025757 0 0 0
995 1 13.810339065575134 6.767196128709495 2.633628744079959 0 0 0
997 1 15.680755510338566 6.544302663343891 2.979497955733849 0 0 0
1000 1 14.364450363556983 6.883583163970849 3.5876250818240916 0 0 0
998 1 0.0660508478902468 7.414739138976745 2.3402005298116624 1 0 0
999 1 15.944369866930964 6.546330770954542 4.049809135836204 0 0 0
1001 1 0.08375399887037169 8.252207006598743 2.9873400276248776 0 0 0
1003 1 0.56787125389684 8.092528395585953 4.167166984033988 0 0 0
1005 1 1.536779805535794 8.209465461231224 3.344514433311478 0 0 0
1007 1 2.8604692092578285 7.990402283605011 4.382592807492476 0 0 0
1009 1 3.364444475669659 8.018289157057225 3.4260156954050656 0 0 0
1011 1 4.513455792228498 8.728359303067714 4.283427605071245 0 0 0
1013 1 5.408315529099993 8.796931210848898 3.610799950272938 0 0 0
1015 1 6.335340841959247 8.587242370893506 4.327285367133506 0 0 0
1017 1 7.094587222807716 8.68472958155153 3.550948506955343 0 0 0
1019 1 7.854662647964657 8.483338710802025 4.513380196982687 0 0 0
1021 1 8.324605243154993 8.275224440191955 3.154549873367922 0 0 0
1023 1 9.577965813694444 8.597148898359208 4.761929216993791 0 0 0
1025 1 10.51312872401515 8.965106193272774 2.8806474101823905 0 0 0
1027 1 11.488086819105034 8.786020803690265 4.116343712922848 0 0 0
1029 1 11.202628557709957 8.04134012347191 3.0315194396920155 0 0 0
1031 1 12.449267100298185 8.181594214341791 4.227354426194869 0 0 0
1033 1 13.427958980172864 8.420776342955827 2.4621278534195037 0 0 0
1035 1 15.166553425423436 7.807555025784591 3.2539962036825747 0 0 0
1037 1 16.278919811818145 7.39520484074629 3.3514065429200426 0 0 0
1039 1 15.984994463025249 7.729267196610067 4.419488592136599 0 0 0
1002 1 0.8139462276953197 9.028748284633542 3.281347376507029 0 0 0
1004 1 16.499448613788182 8.631647004785837 4.101566377764634 -1 0 0
1041 1 16.743584740329386 10.423158844886865 1.9705916233857592 -1 0 0
1043 1 0.5847093758038705 10.03989935769509 3.2595253092547813 0 0 0
1006 1 2.3825598506119015 9.037287239769775 3.6736857762717734 0 0 0
1008 1 1.6110351954112307 9.740703578386517 3.382340604585147 0 0 0
1045 1 1.6626294880627166 10.353296144909258 2.469313559667446 0 0 0
1047 1 2.6788337314970256 10.182834671884718 3.1880597218353075 0 0 0
1010 1 4.483566293919759 9.193927121260442 3.320551408268407 0 0 0
1012 1 3.5018296010606678 8.897456564964346 3.835303400378681 0 0 0
1049 1 3.6790060758641343 10.265064579197292 3.193869289260652 0 0 0
1051 1 4.166348795051018 9.794647767608588 4.157100281445309 0 0 0
1014 1 4.956955744450986 10.146599971803326 3.434516725762156 0 0 0
1016 1 5.3918829733000235 9.578566058192266 4.298434240108672 0 0 0
1053 1 4.809519928724271 10.91108972369211 2.877331781798245 0 0 0
1055 1 6.372102996284785 10.197623629016878 4.273698895960174 0 0 0
1018 1 7.956329002291581 9.268352251949134 3.6092245035886528 0 0 0
1020 1 6.242691551522464 9.468597129155254 3.572095192223366 0 0 0
1057 1 7.1071207670486425 10.146853983539245 3.387884059883262 0 0 0
1059 1 7.967717543344981 10.260239009674237 4.24335688694047 0 0 0
1024 1 8.71399984003626 9.255178498222818 4.320038449914699 0 0 0
1061 1 8.72184283693178 10.144310160964292 3.427651083428453 0 0 0
1022 1 9.455803829922255 8.892564022261809 3.605312075264482 0 0 0
1028 1 10.495383011924428 9.244061729023178 3.9938331585638984 0 0 0
1063 1 9.07315165757761 10.476626309898242 4.445990271844903 0 0 0
1065 1 9.67457295261357 9.836971970800876 3.9946326689741256 0 0 0
1026 1 10.984944515180821 10.016315370594342 3.4878830333714195 0 0 0
1032 1 12.095142187809124 9.724699158727038 3.898363698889418 0 0 0
1067 1 11.571546700411268 10.662607138803354 4.136212382444861 0 0 0
1069 1 11.982417428473706 10.115674864134256 2.8079651693559073 0 0 0
1030 1 12.702299445600183 8.614220470062044 3.2086481120608865 0 0 0
1036 1 13.36249473071914 8.908771668683693 4.180869778628397 0 0 0
1071 1 13.580703943955319 9.892778022487573 4.53674435667225 0 0 0
1073 1 13.030063816031907 9.624775481227383 3.321337646531667 0 0 0
1034 1 14.46188174260893 8.607730985878193 2.236411106221042 0 0 0
1040 1 15.30540637915123 8.942749895105521 4.044564174260723 0 0 0
1075 1 14.545213312998081 8.644759927174942 3.3063813222572858 0 0 0
1077 1 14.818421161222266 9.584372179720082 2.6686613172345934 0 0 0
1038 1 16.412389206280185 9.592131390756933 3.4579862362665366 0 0 0
1079 1 16.15096421653727 9.701011331474566 4.536220015303996 0 0 0
1042 1 0.12608714963508424 11.227697977555838 2.6654191488233323 0 0 0
1044 1 16.771020515531536 10.630352555808004 3.965026137551346 -1 0 0
1081 1 16.698447514233692 11.939599864682966 3.416011563784952 -1 0 0
1083 1 0.8347016285875044 11.31578224657844 3.4989258484546575 0 0 0
1046 1 2.882126651661715 11.20755173284216 2.2609382690580615 0 0 0
1048 1 1.805130194522391 10.764133357957496 3.500824264213846 0 0 0
1085 1 1.6862539129242313 11.443974971578344 2.658838142283059 0 0 0
1087 1 2.2872456630212343 11.758002391616541 3.4998182500980257 0 0 0
1050 1 3.8428471566679114 11.206524242271035 2.8193614470469566 0 0 0
1052 1 3.0500695571784155 11.049554044530426 3.678782010445211 0 0 0
1089 1 2.934733040201067 12.184309554152666 2.5632298675696865 0 0 0
1091 1 3.978722674015663 11.870477868902924 3.7202822866768375 0 0 0
1054 1 5.362590722071522 10.736240136698722 4.299809862590165 0 0 0
1056 1 4.315277924514484 10.93971303166533 4.08636248536026 0 0 0
1093 1 4.925999983779246 12.004447477574839 2.9086871381462287 0 0 0
1095 1 5.679555515825498 11.535083608152853 3.4891205454753207 0 0 0
1058 1 8.018667764633951 10.964401599727939 3.3935265496333895 0 0 0
1060 1 7.480347535139702 11.455292921781082 4.4981712814876404 0 0 0
1097 1 6.946136558969048 12.21948724302349 3.293755973500386 0 0 0
1099 1 7.844593250693869 12.70329411885965 2.5131109678064165 0 0 0
1064 1 8.629761679854738 11.491402257273075 4.152732595300226 0 0 0
1101 1 8.235948741689084 12.02558933460245 3.2699774319809385 0 0 0
1062 1 9.086181044620938 11.061003193172674 3.3443410604490795 0 0 0
1068 1 10.435499656112414 10.374564962334121 4.454492867251701 0 0 0
1103 1 9.691821666231965 11.272613130274587 4.330891389488795 0 0 0
1105 1 10.349155421416214 11.757963903053733 3.2596199932938275 0 0 0
1066 1 10.201459625731818 10.766988320823028 3.2733054033786955 0 0 0
1072 1 12.776342999839152 10.5152662995535 4.253267809049089 0 0 0
1107 1 10.834487972548114 11.447020010573373 4.1660277689114515 0 0 0
1109 1 11.376952645845911 11.096762013287705 3.1171742408806313 0 0 0
1070 1 12.617340378270567 10.921089497736501 3.145560503838649 0 0 0
1076 1 13.715236216930405 10.626401820998845 3.8343364810756535 0 0 0
1111 1 11.880154803360236 11.939296498895468 4.026379654017198 0 0 0
1113 1 13.382313972860299 12.381418798291433 3.430062804529412 0 0 0
1074 1 14.123252622307463 9.599555032541337 3.6003552819473 0 0 0
1080 1 14.62486863153139 10.279077802304453 4.241593091136875 0 0 0
1115 1 12.919342467567589 11.625875481346364 4.204431037563627 0 0 0
1117 1 14.177106060987233 11.533703884988295 3.952749258058623 0 0 0
1078 1 15.513156668524825 9.89169047707632 3.6159149472685552 0 0 0
1119 1 15.924897132172331 11.808893647374969 4.160369522555486 0 0 0
1082 1 1.1180594783536482 12.295476228819387 3.2092884877628647 0 0 0
1084 1 16.771647991201032 12.639132082288643 4.2118930259837954 -1 0 0
1121 1 0.38984528519221 13.482522442130387 1.7978107769835332 0 0 0
1123 1 0.7049682246864605 13.40704397434838 3.4610146650803877 0 0 0
1086 1 2.1453122287817603 12.8052371908977 3.1142646817969184 0 0 0
1088 1 1.536898527278345 12.828151165116807 3.9962962539112716 0 0 0
1125 1 1.7389536924187858 13.738123378893699 3.2647977363149074 0 0 0
1127 1 2.4429820779874967 13.554168993280488 4.157757987097925 0 0 0
1090 1 3.900948254635863 12.528658589304747 2.930293234049853 0 0 0
1092 1 3.046284704876944 12.54880697513833 3.692927864532728 0 0 0
1129 1 3.133900668935855 13.337570497889779 2.8529703975800853 0 0 0
1131 1 3.886546550198839 13.093779440252144 3.957981572694715 0 0 0
1094 1 5.60578703142712 12.987630805208854 2.8742826282206964 0 0 0
1096 1 5.248695652502429 12.60928990540026 3.8410227407912334 0 0 0
1133 1 4.63393660005716 13.314116039323919 3.1404650609740776 0 0 0
1135 1 5.886895516252205 13.363952569315217 4.511738466248582 0 0 0
1098 1 6.588209103756446 12.603319494973285 2.3567108741302643 0 0 0
1100 1 6.421066846885983 12.275217502415375 4.194497513121422 0 0 0
1137 1 6.624098650406532 13.229139380638317 3.703473725604759 0 0 0
1139 1 7.699645126384792 12.507818178837692 3.9620530484473058 0 0 0
1104 1 8.964645800336205 12.617781290250857 4.393868495448325 0 0 0
1141 1 8.69586972587543 12.981494267858906 3.328324012340201 0 0 0
1102 1 9.48933187227946 12.334495473214064 3.339376257863083 0 0 0
1108 1 10.500778957387604 12.856712319475797 3.2275344491467366 0 0 0
1143 1 9.677915925331197 13.374567571401291 3.7583736572834523 0 0 0
1145 1 10.517191229393255 13.934956472525538 2.9515427007076074 0 0 0
1106 1 11.266759876993829 12.127189533333006 2.9925358717473416 0 0 0
1112 1 11.095998333651048 12.593214407010487 4.094985202633772 0 0 0
1147 1 11.219807225021048 13.579970139433646 3.663834794675322 0 0 0
1149 1 12.001083655262253 13.143042194531285 2.7295918616304387 0 0 0
1110 1 12.209928860665734 12.902110492844145 3.8164505976589047 0 0 0
1116 1 13.595031550497977 12.451742964157866 4.487887618014662 0 0 0
1151 1 13.171217421364865 13.413367802750448 4.19638267522766 0 0 0
1153 1 13.883376010609041 13.382622384906684 3.4745737445198546 0 0 0
1114 1 14.62327871873151 12.479019713955523 3.5792315371801435 0 0 0
1120 1 15.671322886678057 12.852652092416253 4.1803323099325445 0 0 0
1155 1 14.607635852547856 13.31043818189731 4.233046350601264 0 0 0
1157 1 15.36135633054916 13.226812042170758 3.256505796736613 0 0 0
1118 1 15.6424637975916 12.266779746041344 3.265153590593317 0 0 0
1159 1 16.393248866877258 13.318893581408135 3.419222198779682 0 0 0
1122 1 1.1783908866401749 14.768597532521621 3.1650392804124796 0 0 0
1124 1 0.316070926111536 14.449315635332532 3.7591400989602026 0 0 0
1161 1 16.77184668041484 15.579848362286953 4.232160663554871 -1 0 0
1163 1 1.0231094140816852 15.187932327042853 4.294595548121445 0 0 0
1126 1 2.7433889308421295 14.352561224948628 3.146402108024939 0 0 0
1128 1 1.9251624993098702 14.558357153310588 3.9912579423194745 0 0 0
1165 1 2.0220204244543423 15.400428778174913 3.447171367738555 0 0 0
1167 1 3.051998360129673 15.74767416344144 4.283274003644596 0 0 0
1130 1 3.773269168097556 13.955896770183681 3.4137826754118175 0 0 0
1132 1 3.032716060037668 14.482958734296224 4.206464167754196 0 0 0
1169 1 3.5636491650529463 15.18160058211487 3.265092155900906 0 0 0
1171 1 4.073316075672038 14.803655970489036 4.208858193757284 0 0 0
1134 1 5.789946717329823 13.884315370425863 3.3974933131038454 0 0 0
1136 1 4.884705807368171 14.14596056298386 3.952271888068437 0 0 0
1173 1 4.568513889778647 14.625438405863205 2.865481890778036 0 0 0
1175 1 4.918034986429025 15.201397856359364 3.862334972964449 0 0 0
1138 1 7.339697901481059 13.313991782508017 4.663228142702832 0 0 0
1140 1 6.639310424206109 14.175712688830371 4.241630458177859 0 0 0
1177 1 6.1968938213219955 15.22035037287413 3.917330739352662 0 0 0
1179 1 7.595154138147533 14.400574263339719 4.865845485514031 0 0 0
1144 1 8.351594768682146 14.091094338042971 3.7398543616591486 0 0 0
1181 1 7.477254653360039 14.619804188470415 3.805373362261074 0 0 0
1142 1 9.417708353164063 14.401999187416102 3.109183812719144 0 0 0
1148 1 10.170946360532863 14.345157441799573 3.894775513958974 0 0 0
1183 1 9.814108019323687 15.352630954530879 3.5857571578599097 0 0 0
1185 1 8.712486911244977 15.808732692424336 2.752855564646259 0 0 0
1146 1 10.732734574235423 14.988424247390027 2.876280125841777 0 0 0
1152 1 12.50723471397138 14.087276972725329 4.622654402762029 0 0 0
1187 1 10.72501106292797 15.182449744653395 4.2731512476885545 0 0 0
1189 1 11.82994216010637 15.453608462692452 4.3752847054673625 0 0 0
1150 1 13.10607726685707 14.307163406421349 3.3256286400422734 0 0 0
1156 1 13.627354367528165 14.313490989527477 4.302296064055326 0 0 0
1191 1 12.894762441108968 15.044402934161662 4.741453267003582 0 0 0
1193 1 12.745930855459736 15.190594331500195 3.710254617665712 0 0 0
1154 1 14.164867535627936 14.442045029210044 3.5120929358846738 0 0 0
1160 1 15.20552471421568 14.239605872417345 3.9761481025137893 0 0 0
1195 1 13.860709306270568 15.549432936114279 4.397373733597753 0 0 0
1197 1 15.613425473643005 15.192095408601356 3.18752803249336 0 0 0
1158 1 16.17944660081302 14.378561431633626 3.330374596107379 0 0 0
1199 1 16.166020294680667 14.707065905415027 4.353004105202454 0 0 0
1162 1 0.8743297639559972 15.677881543870317 3.355915310857458 0 0 0
1164 1 0.1615445764289709 16.41713669999586 4.941760273594963 0 0 0
1166 1 2.911941931159769 16.338342966136025 3.4272328193069166 0 0 0
1168 1 1.9626844412682005 15.994353044448573 4.327210501870917 0 0 0
1170 1 3.751827812177232 16.372016374396352 2.964373194629386 0 0 0
1172 1 4.403440182615172 15.570115568101842 4.908833737410685 0 0 0
1174 1 5.8274851490844 16.57612114545328 3.001879708699685 0 0 0
1176 1 4.164807726457066 15.82707027929395 3.9458058218387326 0 0 0
1178 1 6.894296964702426 16.028403995397923 3.781804890711915 0 0 0
1180 1 5.7587204543034165 16.339468706872864 3.941797193153881 0 0 0
1184 1 7.89158366158349 15.619741859976383 4.356549062266138 0 0 0
1182 1 9.015394069819749 16.069429370222768 3.8755699746639967 0 0 0
1188 1 9.976102786283642 16.445893541004573 3.701186311858727 0 0 0
1186 1 10.874409232899792 15.92563824257362 3.5100774150613296 0 0 0
1192 1 12.67698887118576 16.183517497881706 4.138939691324966 0 0 0
1190 1 13.152318312554032 16.08825615565154 3.2103957073532277 0 0 0
1196 1 13.58528751924933 16.219863410589056 5.074465994661372 0 0 0
1194 1 14.860339931216245 16.08098109299087 3.207139874947941 0 0 0
1200 1 14.95473290601956 15.254448004102567 4.214559026268532 0 0 0
1198 1 16.564070320397914 16.217806225852787 3.2106201858482715 0 0 0
1201 1 16.7801426333787 0.7628192457042422 5.0351793685826784 -1 0 0
1202 1 0.9075456967510362 0.5739679199946408 4.4944772643439155 0 0 0
1203 1 0.7002092607178709 0.2050675875728332 5.830022228661508 0 0 0
1204 1 0.14505766720221308 0.7664084884433247 6.530163343772683 0 0 0
1205 1 1.5374426598311615 16.721689267143887 5.176485818408005 0 -1 0
1206 1 2.317377235320714 0.7036646411391834 5.201200615968805 0 0 0
1207 1 2.3879457371552135 16.464337429527383 6.416441386879961 0 -1 0
1208 1 1.3297409916257694 1.149242801399093 5.8092778889567125 0 0 0
1209 1 2.9317744905954832 0.06129735282503138 5.749262046861282 0 0 0
1210 1 3.966533736038411 0.25714079243228016 5.1209917574056245 0 0 0
1211 1 4.098173971342147 16.61987038692907 6.331535798343484 0 -1 0
1212 1 3.4138778308704345 0.9842694140846812 5.556563314599378 0 0 0
1213 1 4.725278111900299 16.58035788360387 4.64650143293529 0 -1 0
1214 1 5.155724970784135 0.5062459161204789 5.7440776252009 0 0 0
1215 1 4.865914276332811 16.232872221989386 5.706718814209888 0 -1 0
1216 1 5.010315771970779 0.02962933367265412 6.7580929304260975 0 0 0
1217 1 6.593673925185757 16.52747838199887 4.876802738390259 0 -1 0
1218 1 6.2576335946767205 0.8236631337035736 5.000669107504776 0 0 0
1219 1 7.142289862961672 0.45939209022905564 5.284545383151253 0 0 0
1220 1 5.993223700759827 0.8977541795197878 6.187987174673272 0 0 0
1221 1 8.768861039103445 15.875390772922026 4.920029229111386 0 -1 0
1224 1 7.548263135797772 0.852265649397793 6.517052302852266 0 0 0
1222 1 8.798660307408642 1.1212833304367227 5.541099632400472 0 0 0
1223 1 9.205445764008717 16.29861628189486 5.870485552958013 0 -1 0
1225 1 11.247413404260396 0.043827662011492755 5.125995123535803 0 0 0
1228 1 10.199819172383728 0.21593999069083156 5.880877337882711 0 0 0
1226 1 11.863078271500914 0.8885661101880035 4.256334056030631 0 0 0
1227 1 11.243587687861341 16.55431795245824 6.351480023834436 0 -1 0
1229 1 11.395884791680954 15.814921474522915 5.479972309796924 0 -1 0
1232 1 11.480020251447167 0.8082027428487037 6.291277792524591 0 0 0
1230 1 13.201540336618468 0.9500859914200344 5.20419638825554 0 0 0
1231 1 12.276237271593734 0.03456763882878393 5.8498471821562115 0 0 0
1233 1 14.34355213806742 0.14956258749591517 5.281469645547951 0 0 0
1236 1 13.248135675858295 1.766296655019566 6.2121763742769645 0 0 0
1234 1 14.059534787109165 1.0433176891048022 5.752686113516163 0 0 0
1235 1 15.746696352164273 16.638768409907737 4.942751139838861 0 -1 0
1237 1 15.764266714476927 16.02002645024345 3.9191311454706037 0 -1 0
1240 1 15.814280838121295 1.5761425557202664 6.222572299730399 0 0 0
1238 1 15.93057169009702 1.5916166591311511 5.140078810136147 0 0 0
1239 1 16.405893301287996 16.755722590307006 5.8615346781741104 0 -1 0
1241 1 0.6478745054611235 1.6321876275108549 4.940853569990796 0 0 0
1242 1 1.5043535761499933 2.352434496309112 4.904958015664293 0 0 0
1243 1 1.5919793179961435 2.2635101348399016 5.953884979922951 0 0 0
1244 1 0.5778958424366544 2.499762814754934 5.822766561593265 0 0 0
1245 1 1.5733626055467738 1.257536592997019 4.737021578255192 0 0 0
1246 1 3.277130999593311 2.3399940257184486 5.053283285711775 0 0 0
1247 1 2.5084797737475575 1.7959716372892511 5.642722395662549 0 0 0
1248 1 2.309318985635842 2.8542780639700718 5.319752897437169 0 0 0
1249 1 4.170512418598807 1.8154761630122038 4.5516906658971035 0 0 0
1250 1 4.754513362079172 2.4058810090052525 5.086932487849179 0 0 0
1251 1 3.9828937022700326 1.9083239681114228 5.8237562931864275 0 0 0
1252 1 3.2736501281400088 2.703124122400404 6.049879421839101 0 0 0
1253 1 4.880426642906582 1.2527206016110877 5.076808043552813 0 0 0
1254 1 5.604333080233159 2.9967318915399876 5.644192610794246 0 0 0
1255 1 5.147253859332593 1.804619321416451 5.918393933744914 0 0 0
1256 1 4.701302147453282 2.6791220776627327 6.09485682511586 0 0 0
1257 1 6.138966438640284 2.106915490584652 5.625029924250824 0 0 0
1258 1 7.704462821726419 2.5972561324732193 5.459532519760558 0 0 0
1259 1 7.058227157321015 1.5851367241203997 5.8718390964893885 0 0 0
1260 1 7.0379665544188805 2.544420917886726 6.293305146146417 0 0 0
1261 1 8.165565875590415 1.8028973298971231 6.169939446395715 0 0 0
1264 1 8.770056118494013 2.034499099233448 6.995464633289115 0 0 0
1262 1 9.065033586187344 2.709533334607402 6.203041248482174 0 0 0
1263 1 10.14769643965983 2.8973836869128595 5.749472448975768 0 0 0
1265 1 10.731866131452893 1.0511399330771358 5.442730706492849 0 0 0
1268 1 11.203570531634773 3.529153940361859 5.39786803203051 0 0 0
1266 1 11.572458506592303 1.7415249458377569 4.788017074876898 0 0 0
1267 1 10.504759680312679 0.7839251286577731 6.709735316384403 0 0 0
1269 1 11.906105109154433 0.9884981741472257 5.366791773874598 0 0 0
1272 1 10.4587439127744 1.8902839901909896 6.448058669932179 0 0 0
1270 1 12.57480857644598 1.6610906075966283 4.838764111752746 0 0 0
1271 1 11.975533496596679 2.755403693166862 5.110451730961751 0 0 0
1273 1 13.804004939497005 1.8535981440902713 5.237582678632731 0 0 0
1276 1 14.049963435349323 2.520289271244815 5.949756907482439 0 0 0
1274 1 14.30375013381939 2.6429865179409013 4.87607733252103 0 0 0
1275 1 14.79699554354414 1.8195197605414781 6.506991017822838 0 0 0
1277 1 15.218837560251783 2.482614683710278 5.854190455150659 0 0 0
1280 1 15.760707225494967 3.2068975568474887 6.6842622347275285 0 0 0
1278 1 16.356308691352417 2.549533680783793 5.497787890120872 0 0 0
1279 1 4.6833311998284444e-05 1.59551766200479 5.787724081311811 1 0 0
1281 1 0.1328312157443774 3.457099516282645 5.254189811898499 0 0 0
1282 1 1.8480535615079894 3.4957001420796954 4.542412861119837 0 0 0
1283 1 1.3074542390863184 3.2691668611917284 5.3800500109371745 0 0 0
1284 1 2.114683826533193 4.259432116398684 5.242845198263892 0 0 0
1285 1 2.530164262743909 2.6824171702629505 4.2144215982336055 0 0 0
1286 1 2.9347980437113392 4.368113314802222 5.738277891109186 0 0 0
1287 1 2.5386903224881365 3.409642341921854 6.318476937054907 0 0 0
1288 1 1.900942328497038 4.977303956212307 6.171763383948725 0 0 0
1289 1 4.002441972822552 3.1573285309667956 5.517689664097295 0 0 0
1290 1 3.9879405918769963 4.318187313040113 5.45829001131979 0 0 0
1291 1 3.6194541851757696 3.6487521878677893 6.416012277115181 0 0 0
1292 1 3.5232088888416184 4.706452587505164 6.514573893965018 0 0 0
1293 1 4.8763492875500605 3.7196235571287115 5.415539725375372 0 0 0
1294 1 5.924293043349388 4.368168556330664 5.34420772121309 0 0 0
1295 1 5.695662261486546 3.736080625478668 6.301597325933734 0 0 0
1296 1 4.784537593602769 4.283737881817592 6.364856058492324 0 0 0
1297 1 6.755980562876359 3.42864823860748 5.265788312356158 0 0 0
1298 1 7.29263129970718 3.272864450493055 4.3254303802977585 0 0 0
1299 1 7.484572518788224 3.472808639058257 6.027868161668078 0 0 0
1300 1 6.645639448023824 4.2141216825223795 6.065351792030822 0 0 0
1301 1 8.489057627830672 3.7828177694938323 6.10734235387165 0 0 0
1304 1 8.732981789202459 4.680623923359522 6.449730697322597 0 0 0
1302 1 9.54869376471553 3.769636069727731 5.402520374706619 0 0 0
1303 1 9.56339289644789 3.7882673624196492 6.488818434743854 0 0 0
1305 1 10.466035773991655 4.074346033497003 4.835962699066098 0 0 0
1308 1 11.02654401598409 4.56573361411034 5.672488719157211 0 0 0
1306 1 10.878128443024446 5.278776121607525 4.763569348672263 0 0 0
1307 1 11.474101345323467 4.3143570938832765 4.750090560625659 0 0 0
1309 1 12.293432395124098 3.6592438525540674 4.910267169103681 0 0 0
1312 1 11.887739953257077 4.659397610582117 6.2786685089063825 0 0 0
1310 1 12.85155008494426 4.423585763727495 3.9884020934931286 0 0 0
1311 1 12.056709845912524 3.2871350308633285 6.066406028765792 0 0 0
1313 1 13.458541931710883 3.410044841374169 4.529498311516675 0 0 0
1316 1 13.797710529395545 3.7588670049028496 5.3812254125759145 0 0 0
1314 1 14.472136264148032 3.6530981316626754 4.4025704252311755 0 0 0
1315 1 14.888201025203278 3.557540035817644 5.485700116117652 0 0 0
1317 1 15.992001579867788 3.55856173697404 5.55866253728841 0 0 0
1320 1 15.331060713493507 4.21037586080074 6.379733744318644 0 0 0
1318 1 16.1201663823781 4.768853638810465 5.287015589781563 0 0 0
1319 1 0.25400414502385993 4.390922033222436 6.221723951929204 1 0 0
1321 1 0.13996446675992336 5.339546207103748 5.72420287291332 0 0 0
1322 1 1.3362083203116266 5.591953627357287 5.342779871220577 0 0 0
1323 1 0.8780890689691575 5.986837600353257 6.420137142094964 0 0 0
1324 1 16.701275825132985 6.3814391710715785 6.11858203426343 -1 0 0
1325 1 2.555694462023527 5.176052964438175 5.200303457738696 0 0 0
1326 1 2.6333976253697853 6.186443141157486 5.202692203643016 0 0 0
1327 1 3.0060685438313812 5.491735497533565 6.116381369938304 0 0 0
1328 1 2.010293189399641 6.112429882572389 6.281908546780391 0 0 0
1329 1 3.5959070794696526 5.324110881371852 5.112564975041477 0 0 0
1330 1 4.789773210751881 6.113192208396138 5.358434811838681 0 0 0
1331 1 4.4748625868276495 5.462041437642762 6.082186026471082 0 0 0
1332 1 4.00629394031408 6.23637785788727 6.4361997376621956 0 0 0
1333 1 4.935734735118695 4.896787293884674 5.264287106497068 0 0 0
1334 1 5.81262704117904 5.449555781546073 5.3008084801645765 0 0 0
1335 1 5.689708772186884 4.923035073572049 6.37655299074048 0 0 0
1336 1 5.588607346507823 6.173897123970385 6.3238617037936695 0 0 0
1337 1 6.983904957149535 4.820551381021765 4.777033620000822 0 0 0
1338 1 7.766807069064683 5.6243851270841265 5.226490255483782 0 0 0
1339 1 7.655705671168945 4.70780530602514 5.9220740610417275 0 0 0
1340 1 6.712113760383035 5.257502916936598 5.902535198937177 0 0 0
1341 1 8.522687068742286 4.855870482674304 5.354535818326264 0 0 0
1344 1 8.217706625838003 5.6851472621103465 6.1519909037976275 0 0 0
1342 1 9.507460884859428 5.868274283892696 4.899175232768468 0 0 0
1343 1 9.203215064743716 6.09905288611403 5.8817376090902584 0 0 0
1345 1 9.8400197932656 4.851895016994367 5.240793413130996 0 0 0
1348 1 11.079164259919697 6.609488631403443 5.59131413756069 0 0 0
1346 1 9.980519901839983 6.800906865007519 5.162600992924791 0 0 0
1347 1 10.409757858158473 5.795958520913204 5.496840009421245 0 0 0
1349 1 12.158385269363235 5.227719063416083 4.436669129343358 0 0 0
1352 1 11.809022882305586 5.583069769330965 5.433296347444731 0 0 0
1350 1 12.640067761660802 6.140618517657488 4.7935763325545295 0 0 0
1351 1 12.792109319383794 4.758847997024922 5.27021536171765 0 0 0
1353 1 14.157548064559542 4.6859978219904725 4.831055169684748 0 0 0
1356 1 13.405730805526266 5.683287293774765 5.25503819369796 0 0 0
1354 1 14.336812538390701 5.830181719592432 4.2592546258893975 0 0 0
1355 1 14.437730263171705 4.864170900399352 6.565129956695086 0 0 0
1357 1 14.9817667901861 5.045132785094494 5.688417443041661 0 0 0
1360 1 15.368060705817012 5.454166590356973 4.805121305825998 0 0 0
1358 1 16.381009395552432 5.813966010063272 4.8449507721977385 0 0 0
1359 1 15.956421952650238 5.029669788946752 6.204001071187427 0 0 0
1361 1 0.4216387091443141 6.477312202766554 5.133436499904793 0 0 0
1362 1 0.9041225399636015 7.519998703736164 5.112156193668633 0 0 0
1363 1 1.0626469195236288 6.994352770215346 6.252045295748177 0 0 0
1364 1 0.1386769554408114 7.3566731128014835 5.881724139398795 0 0 0
1365 1 1.616770004613844 6.748330870742937 5.110466350287651 0 0 0
1366 1 1.9338904675167594 7.7539874859731786 5.037201691562336 0 0 0
1367 1 2.9899893217379145 7.3232840925448635 5.390792923436133 0 0 0
1368 1 2.0312944167116274 7.157222679701765 5.939701665931066 0 0 0
1369 1 3.8121306385158253 6.556188479691841 5.404237709736061 0 0 0
1370 1 4.746835081046485 7.875215765273983 5.101897299274754 0 0 0
1371 1 4.7845813539340485 6.931157083014942 6.02979473866469 0 0 0
1372 1 4.005786716797171 7.725853783980738 5.7524269240120125 0 0 0
1373 1 5.508997651067435 7.092744107335811 5.118057492215628 0 0 0
1374 1 6.2896865167449025 7.796963781212459 5.080051650116078 0 0 0
1375 1 6.76045130571985 6.162352985114042 5.3268405499495275 0 0 0
1376 1 5.464890949831941 7.779302993561049 6.0149971875733454 0 0 0
1377 1 7.515396009888955 6.711440759430768 4.726292792330336 0 0 0
1378 1 8.205638364313684 7.489047205744789 5.096289177016773 0 0 0
1379 1 7.679791774301697 6.547746680000368 6.062516095636374 0 0 0
1380 1 6.973536197122847 7.214621891146843 5.519314218073905 0 0 0
1381 1 8.642212168785587 6.59967782724033 5.2817950011196935 0 0 0
1384 1 8.388384268730144 7.4447092284108605 6.200004196291585 0 0 0
1382 1 9.147885263256816 7.897390209825998 5.515951699718599 0 0 0
1383 1 9.641010574756162 7.161646039015366 6.1150259743824975 0 0 0
1385 1 10.060877364592073 7.7440921952758766 4.798316390517757 0 0 0
1388 1 10.321911859821755 7.91056397463968 5.818415512615202 0 0 0
1386 1 11.126544717344604 7.6078382619426606 5.1117982641787485 0 0 0
1387 1 10.607841962731348 7.294022344523601 6.680936905369849 0 0 0
1389 1 11.685394342683175 6.469899525078613 4.66516334567875 0 0 0
1392 1 11.449003697332264 7.7474313466972395 6.061334060444741 0 0 0
1390 1 12.278319994232698 7.537237929959339 5.237911327319459 0 0 0
1391 1 12.11107968641128 6.614866563069523 5.756499577470174 0 0 0
1393 1 13.279243315884976 6.759303765376138 5.370882159027885 0 0 0
1396 1 13.077984550801078 7.513961591248839 6.0457067159461415 0 0 0
1394 1 13.906277965990695 7.071761956629284 4.5506576175997395 0 0 0
1395 1 14.196255212140588 6.3141487215668946 5.188671614192155 0 0 0
1397 1 15.173978791158994 6.517649566093534 4.7394651687615115 0 0 0
1400 1 15.054705143105345 6.765518159712184 5.829990764999619 0 0 0
1398 1 16.268630246030572 6.785077766316121 5.286316270301727 0 0 0
1399 1 15.732760345632826 5.966413816015741 5.832650939139869 0 0 0
1401 1 0.0189628073915188 8.225924439501613 5.167797334047366 0 0 0
1403 1 0.48524983122175225 8.535726578888562 6.379409604947224 0 0 0
1405 1 1.6653957149446372 8.54035544325417 4.3792155843354585 0 0 0
1407 1 2.7613306085964715 8.331050026354736 5.476848262842862 0 0 0
1409 1 3.593733071729208 8.82475683807344 4.92703112605068 0 0 0
1411 1 4.008770863903114 8.763764525884955 5.958971116668349 0 0 0
1413 1 5.513892800401394 8.633829133738438 4.904621381545921 0 0 0
1415 1 6.0159220600741445 8.646869460821206 5.889976364532303 0 0 0
1417 1 7.0417779537248535 8.604700821772852 5.380661942079139 0 0 0
1419 1 7.976169102930433 8.316112896582668 5.739990308483174 0 0 0
1421 1 8.699767128013804 8.983638925594239 5.4057157758366 0 0 0
1423 1 9.575165767414424 8.685392742751276 6.162614020091667 0 0 0
1425 1 10.770543522869646 8.577659604858233 5.030663717368186 0 0 0
1427 1 11.545131849964806 8.811518641902088 6.114816240367251 0 0 0
1429 1 11.794004313072577 8.431183973451837 5.108426265859257 0 0 0
1431 1 12.808269097017488 8.549422140860518 5.63069785338508 0 0 0
1433 1 13.367020916290075 7.848885981210246 4.909116931772641 0 0 0
1435 1 14.169430380285759 7.414249317422581 5.513043343074144 0 0 0
1437 1 15.886576083843543 7.740363842208756 5.489476138578207 0 0 0
1439 1 16.28258028318272 8.471314572173283 6.170674624377912 0 0 0
1402 1 1.0992345361732891 8.605049405296471 5.334500668714467 0 0 0
1404 1 0.032930650122376184 9.152756003319666 5.148481034761066 0 0 0
1441 1 0.47441843069691964 9.457103066936766 4.312706713888285 0 0 0
1443 1 0.25310312941611884 10.192616392874159 5.294421823205572 0 0 0
1406 1 1.9386496031162908 9.594689881582608 4.523202300020415 0 0 0
1408 1 1.5752070284992208 8.30920797701292 6.2544255955479935 0 0 0
1445 1 1.3428414647263316 9.930583905735025 5.405596855224874 0 0 0
1447 1 2.1596078814200044 9.182372204525718 5.999793265982173 0 0 0
1410 1 4.679677272107601 9.334479371556307 5.11000433069272 0 0 0
1412 1 2.833689832077335 9.540268464422912 5.233808587138921 0 0 0
1449 1 2.9811627787620063 9.835398234964032 4.122891142053376 0 0 0
1451 1 3.4635860934555978 10.963038536409256 5.990519116620167 0 0 0
1414 1 7.036610028140803 9.302726852108561 4.392085865517615 0 0 0
1416 1 6.326512165281762 9.431078740224041 5.025722176437326 0 0 0
1453 1 4.238416590762385 10.314564613083018 5.0266746953774275 0 0 0
1455 1 5.641499574220055 10.372952361928862 5.246675476368322 0 0 0
1418 1 7.647100555643419 9.63388610529008 5.190214489913728 0 0 0
1420 1 7.143661375840071 9.517220090861413 6.090051698865725 0 0 0
1457 1 6.687472194097161 10.37628404985508 5.363187140169931 0 0 0
1459 1 7.837166627779881 10.59430902529801 6.2591304838298045 0 0 0
1424 1 8.211372295298203 9.438658390181747 6.5719783335827415 0 0 0
1461 1 8.669503182106844 10.100367770643519 5.5033474807353455 0 0 0
1422 1 9.683867131572995 9.543975934481105 5.258364199248681 0 0 0
1428 1 10.597026430831514 9.192621752735125 5.923105102224478 0 0 0
1463 1 9.318173072472685 9.77704094020911 6.258137802592473 0 0 0
1465 1 10.902690833711736 10.27411031961025 5.4620242482943935 0 0 0
1426 1 11.487417495617839 9.412708183117987 5.127288985710331 0 0 0
1432 1 12.1894925774199 9.7482217379511 5.874163536585059 0 0 0
1467 1 11.24371038768603 9.883675262673538 6.4306371310934045 0 0 0
1469 1 12.134060359371004 10.421520760190845 5.093336471165677 0 0 0
1430 1 12.605746524283852 9.522677127606821 4.898552412347801 0 0 0
1436 1 13.716639360597231 9.071907696314176 5.249851469255725 0 0 0
1471 1 13.068932866222234 10.154083207753919 5.609615197887652 0 0 0
1473 1 14.262777397583926 8.527963585430648 4.642091176864722 0 0 0
1434 1 14.878030293589742 7.625353675898916 4.202073135073233 0 0 0
1440 1 14.821667247558018 8.176684605809836 5.476200764860943 0 0 0
1475 1 14.018212135130105 10.048464824620089 6.633286915154384 0 0 0
1477 1 14.134776989909891 10.05086586562889 5.539026915989592 0 0 0
1438 1 15.833606575972212 8.58315914872163 4.925645953241066 0 0 0
1479 1 15.103498239658354 9.459947666961387 5.045661754987161 0 0 0
1442 1 1.168283840019382 10.39501664792681 4.307677756194065 0 0 0
1444 1 15.828644477687591 10.487182940972021 5.771903183855249 -1 0 0
1481 1 16.420637587002766 11.895013989999795 5.1307894587331635 -1 0 0
1483 1 16.72214167527346 11.16090872554754 5.882790282352656 -1 0 0
1446 1 2.2364899546823342 10.752836399385917 4.508627802130808 0 0 0
1448 1 1.062737144447789 11.113047306083244 5.1690037060368885 0 0 0
1485 1 1.4955010747593145 11.478251874863805 4.221290298695181 0 0 0
1487 1 1.9362345723193572 11.842358509819942 5.363904114663221 0 0 0
1450 1 3.2749268305116708 10.607036418553731 4.840447913506951 0 0 0
1452 1 2.679792732210709 11.15676041929615 5.320794383383572 0 0 0
1489 1 3.255985154886031 11.761231585330515 4.546084715018654 0 0 0
1491 1 4.158676166032121 11.496657359172833 5.330352909296778 0 0 0
1454 1 6.165014636871803 11.397688792593017 4.765176422622624 0 0 0
1456 1 5.346415713752803 11.472726663580586 5.486850743591461 0 0 0
1493 1 4.962366583860677 11.822705141514351 4.512702336612777 0 0 0
1495 1 6.351628313297475 11.549330065749084 5.820738177436674 0 0 0
1458 1 8.172963428125268 10.895211605216426 5.157010529361898 0 0 0
1460 1 7.377985837852717 11.66658098536338 5.817749222012196 0 0 0
1497 1 6.823681261571822 12.167663428831077 5.1026627173096655 0 0 0
1499 1 7.831798936612453 12.48637444555384 6.167190329473758 0 0 0
1464 1 8.387355875198704 11.479071829330723 5.97387397954472 0 0 0
1501 1 9.138915572131758 11.811532900073658 5.068625176771391 0 0 0
1462 1 9.501360102197108 10.84761392607068 5.521143973066357 0 0 0
1468 1 10.328004815673342 10.66898350659954 6.173504358401861 0 0 0
1503 1 9.965726366977027 12.466597439525318 5.174389498067254 0 0 0
1505 1 10.375879991958646 11.407900979128556 5.1111065015969475 0 0 0
1466 1 11.717643331443258 11.490491306133096 5.036448604056454 0 0 0
1472 1 12.404462283288218 10.895779120049374 6.1754607123572285 0 0 0
1507 1 11.127949859192166 11.292558698365125 5.900377564737288 0 0 0
1509 1 12.009464609892797 12.844895378765482 5.726386452980661 0 0 0
1470 1 12.333350944377996 12.28207744492445 4.979005598338047 0 0 0
1476 1 12.727509509344907 11.29033894181582 5.139922576305844 0 0 0
1511 1 12.99773499085691 11.991133205143258 6.29301317060118 0 0 0
1513 1 13.541552194855301 11.863691717296678 5.425575264201485 0 0 0
1474 1 13.7238267810723 10.930024967088535 4.859572849731769 0 0 0
1480 1 14.895695784647538 10.606633320655094 5.36706615983961 0 0 0
1515 1 14.448832344754948 11.807732593350465 5.868550829915884 0 0 0
1517 1 14.981707770319394 11.664471981034557 4.68328353164515 0 0 0
1478 1 15.784912445585483 10.740015588863116 4.497055901076497 0 0 0
1519 1 15.641496261555716 11.463458720834279 5.789219917743838 0 0 0
1482 1 0.3952064129221065 11.607669600186991 4.494995841128373 0 0 0
1484 1 16.627702576358455 12.201799393675916 6.202473345609891 -1 0 0
1521 1 0.5895766537772974 13.447487636803366 4.497125125269876 0 0 0
1523 1 0.29336785554446815 12.76067447510467 5.342405611588066 0 0 0
1486 1 2.489815106334154 12.470086930613013 4.5738258576944695 0 0 0
1488 1 1.1494300611241302 12.948025948375077 5.933975549289258 0 0 0
1525 1 1.535103910606816 13.229024467075782 4.933852881910176 0 0 0
1527 1 2.1606668056739937 13.044070743417972 5.681270553190035 0 0 0
1490 1 3.9897256820577147 12.573745407337034 4.941129511964387 0 0 0
1492 1 3.0985917400633323 12.350629501929815 5.579312150508257 0 0 0
1529 1 3.2038423409024857 13.280991086890067 5.03153249214905 0 0 0
1531 1 4.159417834179794 12.936954306003841 5.978870755733172 0 0 0
1494 1 5.825671451641597 12.533664941749603 5.099580220675881 0 0 0
1496 1 4.906949954277717 12.412628229387906 5.594640323554156 0 0 0
1533 1 3.883377931419521 13.952499111624068 4.676863780664297 0 0 0
1535 1 5.851528082004706 12.39028362329278 6.198646046901206 0 0 0
1498 1 8.052521959261314 12.18590433109564 4.964265602896711 0 0 0
1500 1 6.8626791973723495 12.551287719060682 6.494610759846364 0 0 0
1537 1 6.628673544853006 13.130604795281288 5.3998604921290925 0 0 0
1539 1 7.609536283250786 13.423631415166687 5.612343451648382 0 0 0
1504 1 8.832750509468562 12.652360654839974 5.863244775988396 0 0 0
1541 1 8.40207342279601 13.491259771016901 4.6878060511411945 0 0 0
1502 1 10.122860219509706 12.25819414327475 4.104805260143254 0 0 0
1508 1 10.42909483741768 13.322195096397726 6.202705088427101 0 0 0
1543 1 9.248501955181224 13.369633289051848 5.358824806217718 0 0 0
1545 1 10.175859403221942 13.576659032100244 4.890429035999137 0 0 0
1506 1 11.078218430622556 12.379032584629398 5.1790896602964915 0 0 0
1512 1 11.384790401344587 12.966779953470228 6.620037986786571 0 0 0
1547 1 11.219327162394364 13.584944644417039 5.518069121963785 0 0 0
1549 1 11.892562721894276 13.197628843491412 4.7615108023143815 0 0 0
1510 1 13.06635333715659 13.003777112325277 5.294636988387902 0 0 0
1516 1 13.892979113063227 12.66511601532416 6.002332999584958 0 0 0
1551 1 12.491518505548573 12.941729698995928 6.733452538277491 0 0 0
1553 1 13.986819305557264 13.555523048611862 5.267766099605849 0 0 0
1514 1 14.612833381771795 12.728721443749729 5.1363578040959 0 0 0
1520 1 15.643444352918834 12.517316243687397 5.334597245491349 0 0 0
1555 1 14.755564714990145 13.683566530482278 6.06599240133726 0 0 0
1557 1 15.20787300006576 13.638435362050656 5.080257329379093 0 0 0
1518 1 16.312736368085506 13.309128321309272 4.861237721298294 0 0 0
1559 1 16.741708838005067 13.396090561331626 6.117079945828973 0 0 0
1522 1 1.3323520062900183 14.192091810778445 4.7943083040216505 0 0 0
1524 1 0.635063883790962 13.799224210680904 5.503732181106842 0 0 0
1561 1 0.16661155820348308 14.699996556404741 4.95071214182127 0 0 0
1563 1 1.1796950907725003 14.880771080514275 5.961818327410165 0 0 0
1526 1 2.583085136641529 14.09521252729478 5.095319226240441 0 0 0
1528 1 1.6329533340990339 13.975312598782494 5.735067705220552 0 0 0
1565 1 1.9782999968403083 15.103807696022415 4.950594130659989 0 0 0
1567 1 2.2908713421539835 14.923991030101798 6.032538178865845 0 0 0
1530 1 4.639634129307424 14.367458432517632 5.252554079850564 0 0 0
1532 1 3.6808270988958633 14.257047879113093 5.800893091416836 0 0 0
1569 1 3.171705300631919 15.120184290286131 5.077982789268042 0 0 0
1571 1 4.096580676031814 15.277167641865768 5.852749378957448 0 0 0
1534 1 4.838668144334459 13.316569106342065 4.821052814982669 0 0 0
1536 1 5.119848428758361 13.412652594390488 6.022922328442255 0 0 0
1573 1 5.431713753073576 14.709961410645922 4.672582761580463 0 0 0
1575 1 4.612590206354423 14.455548390207719 6.502602676667509 0 0 0
1538 1 6.570025599242883 14.253784063341344 5.397010623224956 0 0 0
1540 1 5.624531224664865 14.328798841070029 6.11244497504752 0 0 0
1577 1 6.709275705198555 15.168722433338345 4.834997765783765 0 0 0
1579 1 7.674874904088188 14.443054244828224 6.044550598439775 0 0 0
1544 1 8.739587876328445 14.18029321976835 5.746495288228388 0 0 0
1581 1 8.625545512410671 14.643782608092604 4.626870727153922 0 0 0
1542 1 9.324042866866295 14.030047473153415 4.443521533734066 0 0 0
1548 1 9.864497655620914 14.389081786887202 5.590015169524924 0 0 0
1583 1 9.15197042745955 15.147103883083792 5.784446905511327 0 0 0
1585 1 9.603387601126096 15.08427719465892 4.698280902289309 0 0 0
1546 1 11.44510923747329 14.319805758982932 4.52858485593421 0 0 0
1552 1 12.218730010514205 13.856130330300838 5.848771193372549 0 0 0
1587 1 10.632744821012793 15.063129744664689 5.706240585933519 0 0 0
1589 1 11.688154875951712 14.826687000520662 5.393094432360688 0 0 0
1550 1 13.209263852637664 14.245838311165075 5.420715369586506 0 0 0
1556 1 13.957818266419943 14.374622732229044 6.189376846327571 0 0 0
1591 1 12.721527828859665 15.099773458239776 5.848042248618672 0 0 0
1593 1 13.796498297466211 15.047301985788327 5.3193012211960795 0 0 0
1554 1 14.530064055406507 14.440390469293353 4.798193064641981 0 0 0
1560 1 15.568046714811315 14.008856050049255 6.58850680834152 0 0 0
1595 1 14.733111379087214 15.165004274214219 6.045398940935406 0 0 0
1597 1 15.29704244079187 14.980252418602436 5.189290536461173 0 0 0
1558 1 16.062738967891892 14.053568536013241 5.61010925808758 0 0 0
1599 1 15.969757401476166 15.099615156841946 5.983365842731741 0 0 0
1562 1 0.9142677218268787 15.772923688239883 5.198191967715927 0 0 0
1564 1 0.1143474742084659 15.860693379890222 5.897638984410481 0 0 0
1566 1 2.3285177269898027 15.969062948524329 5.4394625620203225 0 0 0
1568 1 1.5186127250126664 15.830848510586668 6.191414123458795 0 0 0
1570 1 5.210964148953723 15.22365575964954 5.6535115947458845 0 0 0
1572 1 3.144208551275072 15.632783809916914 6.168506178766965 0 0 0
1574 1 5.846689318580462 15.816434819035475 4.845035430482181 0 0 0
1576 1 5.500351663322882 15.896332506299753 6.600484201375813 0 0 0
1578 1 8.202370073059635 15.10736474434633 5.4470762450877475 0 0 0
1580 1 7.406844702379618 15.896597045850463 5.498020620933728 0 0 0
1584 1 7.828048059516809 15.378579710145006 6.538897430758101 0 0 0
1582 1 9.500490239096704 16.68778620764786 4.913192993611352 0 0 0
1588 1 10.184447518643077 15.956201061288413 5.675269688946642 0 0 0
1586 1 10.505033063099933 16.12617909380479 4.606624558454841 0 0 0
1592 1 12.007763249940266 15.7798791740731 6.3228562188093225 0 0 0
1590 1 12.450697036849679 15.984459422148717 5.199414929694012 0 0 0
1596 1 14.253258506617993 16.284808499938197 6.01522725132211 0 0 0
1594 1 14.71684992905136 15.940469715863642 5.060765670157959 0 0 0
1600 1 15.385628925166696 16.01332742880862 5.958953337586799 0 0 0
1598 1 16.19754483806631 15.574549970653905 5.164360927799324 0 0 0
1601 1 0.5874982220129852 16.381990544022656 6.678359436634067 0 -1 0
1602 1 0.6844552470500663 0.3304119224258283 7.324780765849071 0 0 0
1603 1 1.51648023341662 16.144871532356127 7.162444964901812 0 -1 0
1604 1 16.38227285000693 0.6798097910272733 7.820027168691101 -1 0 0
1605 1 1.4542023208274455 0.3156429045928575 6.502551072101796 0 0 0
1606 1 2.5006508336408144 0.9295233104855128 6.171988229837104 0 0 0
1607 1 2.916929582430409 0.5168180051852765 8.5045002367757 0 0 0
1608 1 2.294752567117758 0.4906847762790469 7.121963634537625 0 0 0
1609 1 3.359958769647886 16.095821772241514 7.067802806162725 0 -1 0
1610 1 3.325744185747757 0.592014010437605 6.617580548824076 0 0 0
1611 1 4.176948264191638 15.757356296980253 8.531386239869034 0 -1 0
1612 1 3.3458875507286097 0.6446163788048581 7.605204160485143 0 0 0
1613 1 4.22681101258491 16.34390205892647 7.724434132651111 0 -1 0
1614 1 6.762645641299525 0.7647821403486766 7.1233108183280995 0 0 0
1615 1 5.979883763636289 0.06429532500329262 6.8532854560677166 0 0 0
1616 1 4.482333531289861 0.5653363491236564 7.498708963516038 0 0 0
1617 1 7.118871848439029 16.697735958535798 6.286997212107218 0 -1 0
1618 1 7.389092590923243 1.8167826410143493 6.9374218372532495 0 0 0
1619 1 8.32694269513444 16.537385409540253 6.696682231492366 0 -1 0
1620 1 7.949145377934892 0.262029299917019 7.604894466704684 0 0 0
1621 1 8.1190165462871 0.36045531629044825 5.864475459001924 0 0 0
1624 1 9.343898863320087 0.12201389922454166 6.708960603536962 0 0 0
1622 1 9.641382478739867 1.0821937898799352 6.143770918910567 0 0 0
1623 1 8.856070181664556 16.26983280658169 7.528344518394625 0 -1 0
1625 1 10.203643645248333 16.31004077218125 6.698516486832419 0 -1 0
1628 1 10.087888797896582 0.5272002064032972 7.602790361915489 0 0 0
1626 1 11.384169743752443 0.8352697345851109 7.319349617946223 0 0 0
1627 1 11.021428851725146 16.544296666178933 7.408933389102625 0 -1 0
1629 1 12.043402042356188 0.04973769904811543 6.95874641508818 0 0 0
1632 1 12.724819628083653 1.1591538888839736 7.266836719734562 0 0 0
1630 1 12.653851912408065 0.9353857294800076 6.219888789747023 0 0 0
1631 1 13.237176431158051 0.16965741455959504 6.988214950312177 0 0 0
1633 1 13.441587270156953 0.14916782948913213 5.888105432210958 0 0 0
1636 1 13.748391885296499 2.1851717024413353 7.224073248781695 0 0 0
1634 1 14.183824604448478 0.6389078386939627 6.819616654518933 0 0 0
1635 1 14.402706017096254 0.15907473687374232 7.786684787895292 0 0 0
1637 1 15.54179047639445 0.6862730101748123 5.716144664239782 0 0 0
1640 1 15.70345529010137 1.291896609796425 8.071063042083658 0 0 0
1638 1 14.978440307380879 1.137080223259685 7.334493527667819 0 0 0
1639 1 16.6179879553072 16.58498744628391 7.347888922369474 0 -1 0
1641 1 0.7278379706547833 1.6006122567593521 6.586829399340313 0 0 0
1642 1 1.0999710473181734 2.771118387583517 6.672314694391542 0 0 0
1643 1 0.8316916048380346 1.3088709278428237 7.678689930300197 0 0 0
1644 1 0.2692252957596684 2.370140952523596 7.517091550346277 0 0 0
1645 1 1.7153154694281245 1.3016149792276444 6.919785676076157 0 0 0
1646 1 2.3280276189224165 2.4324286847452727 6.805154035804118 0 0 0
1647 1 2.5143633550607603 1.3956197172841525 7.6731539331241265 0 0 0
1648 1 1.474396483266211 2.272038370826088 7.408428448845304 0 0 0
1649 1 3.099873277933635 1.7229306335701642 6.550160943593992 0 0 0
1650 1 3.879312616849476 2.614579366530566 6.949891082368325 0 0 0
1651 1 3.8938664571922543 1.5143743008352855 7.1875579058943115 0 0 0
1652 1 3.120296704281263 2.272775812814375 7.5872947375405575 0 0 0
1653 1 4.3519085266912105 1.0017984043169945 6.3721583013289775 0 0 0
1654 1 5.864974174965697 2.678084518061551 6.735502896456293 0 0 0
1655 1 5.698011490184028 1.0575240998226216 7.271240651124507 0 0 0
1656 1 4.955957875726861 1.886386058098723 7.035202465933529 0 0 0
1657 1 6.334276845798705 1.785373793746908 6.657350500765155 0 0 0
1658 1 8.082628497609267 2.8198941777331603 6.695746740029493 0 0 0
1659 1 8.127772308383667 1.3704367242176407 7.818261872964864 0 0 0
1660 1 7.046887028377089 2.921918089384693 7.277312907865398 0 0 0
1661 1 8.610612142340697 1.0189036117179133 6.844801154331946 0 0 0
1664 1 8.711626635300613 2.937252684559074 7.532467357727662 0 0 0
1662 1 9.659252123113815 2.731079281904878 7.1025898780088434 0 0 0
1663 1 9.791119196360812 1.4179614923946702 7.164899228299074 0 0 0
1665 1 10.770021882662714 2.853937571852322 7.0433254839251385 0 0 0
1668 1 10.211644809609103 2.6167803520543855 7.9417838101375136 0 0 0
1666 1 11.179609412871665 2.6404858036480494 6.153043236001645 0 0 0
1667 1 10.758272281374216 1.7194105202195833 7.417277052410052 0 0 0
1669 1 12.252969764320934 2.1404072491554573 5.916241977618729 0 0 0
1672 1 11.616618172642013 1.8222154746498163 6.827165453135117 0 0 0
1670 1 12.739890057354009 2.4462720835345557 6.886066288196715 0 0 0
1671 1 13.020712276774603 2.0929178275747837 7.939114474240034 0 0 0
1673 1 13.112678604153144 2.62796723987396 5.449245713724045 0 0 0
1676 1 12.712371614814188 3.1822347650008793 7.72775878161068 0 0 0
1674 1 14.690741691782074 2.8647814662038713 6.759047714922515 0 0 0
1675 1 14.715736953392327 1.953142056833054 7.819024232274442 0 0 0
1677 1 15.567112137660285 2.1469832798566255 7.162816412395085 0 0 0
1680 1 16.222783239519387 2.259306443897805 8.11719848684811 0 0 0
1678 1 16.47448867241942 2.406089357466794 6.536898675391726 0 0 0
1679 1 16.52413198452375 1.4638177323002404 7.226126638810387 0 0 0
1681 1 0.2509650894976661 3.3197283622558302 6.380797755590123 0 0 0
1682 1 1.0261755834720439 4.894710443514671 6.7837979167071145 0 0 0
1683 1 0.7381284008037898 3.3522335255204827 7.637396764010588 0 0 0
1684 1 0.21408300364852448 4.252845908392497 7.296984471953107 0 0 0
1685 1 1.4181195420414885 3.724682378002861 6.439989217228713 0 0 0
1686 1 2.5113375756315133 4.273427727268863 6.847003836296487 0 0 0
1687 1 1.8492083834843578 3.3138866514458343 7.309063617088676 0 0 0
1688 1 1.3231963015504609 4.130989265972742 7.732408309197768 0 0 0
1689 1 2.9540894686394137 3.242351569639709 7.256488653720383 0 0 0
1690 1 4.441548975781905 4.342643791085525 7.559467702512464 0 0 0
1691 1 3.985813333805508 3.018669258608878 7.857935709868021 0 0 0
1692 1 3.2671141647406956 4.330119189612248 7.549738596647494 0 0 0
1693 1 4.928739327492944 3.2171345675350946 7.146882810866048 0 0 0
1694 1 5.589664257151836 4.24579292655672 7.254781529544156 0 0 0
1695 1 5.878755820230634 3.2609153811785814 7.671822738267653 0 0 0
1696 1 5.117305034023579 4.042749686564548 8.207369725726172 0 0 0
1697 1 6.474864323343421 3.813327300783193 6.958149080713158 0 0 0
1698 1 7.4785787435544915 4.224165565665988 6.93310826767713 0 0 0
1699 1 7.852055713351102 2.349307851916453 7.724082722697866 0 0 0
1700 1 6.382958859713389 4.140385672607671 7.962874254847585 0 0 0
1701 1 8.476796414540146 3.8242871981324997 7.109879311896069 0 0 0
1704 1 8.137867404963737 4.900082684635391 7.649087368562876 0 0 0
1702 1 9.115594121474954 4.547443285994789 7.542745865162517 0 0 0
1703 1 9.633895839489455 3.6182834080537285 7.639442014552874 0 0 0
1705 1 10.761799300927848 3.6836694918815875 6.299599962209929 0 0 0
1708 1 10.176613092524095 4.721082597945333 7.594427878384372 0 0 0
1706 1 10.901632885938314 4.628949985934028 6.785509614930916 0 0 0
1707 1 10.839803290957791 3.744721172669865 7.679011780546552 0 0 0
1709 1 11.802045633760569 3.9131311692232242 6.947765214517186 0 0 0
1712 1 11.83863785502228 4.944948386033827 7.400311123372371 0 0 0
1710 1 13.529463944420954 4.630460017658403 5.9612349882957405 0 0 0
1711 1 12.945224017639838 3.6908229638336203 6.521842613000247 0 0 0
1713 1 13.688949765014588 3.1566676133671097 6.972732841983677 0 0 0
1716 1 13.732340642959615 4.312004914860766 7.182380492474449 0 0 0
1714 1 14.317758903284439 3.8288140251278966 6.374569216356013 0 0 0
1715 1 14.729266786886333 3.9351447568359292 7.395633278547533 0 0 0
1717 1 15.316410382441095 2.8850366127903246 7.746167671219731 0 0 0
1720 1 14.71150388461338 4.95117804249735 7.573605661596636 0 0 0
1718 1 1.1181557324942923 4.542971514700885 5.518434448616865 1 0 0
1719 1 16.36256935969501 3.1320163799531278 7.538045754888166 0 0 0
1721 1 0.9835737086615641 4.9505914121046235 8.111936541661564 0 0 0
1722 1 1.5873632307850372 5.753608038051199 7.251471471957095 0 0 0
1723 1 2.024966605065245 5.0381939485870255 7.936235770885131 0 0 0
1724 1 0.7030427206886669 6.040776994978225 7.82095780415128 0 0 0
1725 1 2.5228914234680015 5.397646335791951 7.034688962781967 0 0 0
1726 1 2.9530339587207 6.659039762932986 6.298308559981824 0 0 0
1727 1 2.9784173072824314 5.630911312920264 8.172877662848862 0 0 0
1728 1 1.775463858246843 6.426153177101149 8.180537576284674 0 0 0
1729 1 3.616442424565398 5.522873063008635 7.245689828192528 0 0 0
1730 1 4.9224769500592 7.056755923293337 7.214042091979354 0 0 0
1731 1 3.885902496391847 5.009949859473117 8.175010979317571 0 0 0
1732 1 2.634624688958006 6.4254255936635305 7.5430928364604135 0 0 0
1733 1 4.760969981977783 5.978785209866703 7.1464205076904745 0 0 0
1734 1 5.919107042215902 5.739805272995041 7.488279421944234 0 0 0
1735 1 5.288756507424047 5.030146785881033 7.912074493660415 0 0 0
1736 1 4.500576022961708 5.818662126004996 8.34738984788054 0 0 0
1737 1 6.5607883357028625 4.872928024243385 6.896001337435717 0 0 0
1738 1 7.571640505703713 5.241127828681212 6.917146758873745 0 0 0
1739 1 7.377473333144574 4.543805991746368 8.240483011234742 0 0 0
1740 1 6.944150874772811 5.778432688294729 7.7138252671200025 0 0 0
1741 1 7.800029928853358 5.652126335862564 8.259831705184327 0 0 0
1744 1 8.433243486304704 4.836739989064813 8.76795168015392 0 0 0
1742 1 8.039075007936441 6.168136548601717 7.373162506947888 0 0 0
1743 1 8.79749113590845 5.64379428686388 8.075593397092135 0 0 0
1745 1 9.885356090436868 4.967554797777609 6.430060528003965 0 0 0
1748 1 9.855943560157524 5.833508072399595 7.602914446310242 0 0 0
1746 1 10.353904133120448 6.173127832575811 6.554094105058405 0 0 0
1747 1 10.825370132264265 5.4921198680311925 7.352850586222667 0 0 0
1749 1 11.168753997645409 5.497771407013408 6.272261563809816 0 0 0
1752 1 11.792489396087975 6.052891776573957 7.337599309362228 0 0 0
1750 1 12.350729869317947 5.858716933977848 6.398198349894672 0 0 0
1751 1 12.786016437543593 4.87692027163757 6.964561042874303 0 0 0
1753 1 13.577834874442573 5.480176384358578 6.678156901663643 0 0 0
1756 1 12.889602697415889 6.006651833653708 7.350143204725017 0 0 0
1754 1 14.373264289645086 6.026219233742052 6.201746354460139 0 0 0
1755 1 14.142128440374352 6.273504768938441 7.402534312139141 0 0 0
1757 1 15.209682227722453 5.565690288717176 6.798838283170716 0 0 0
1760 1 15.863927532753218 5.170794439690507 7.43968597034354 0 0 0
1758 1 16.715466945118834 5.495752378698609 6.959910166795159 0 0 0
1759 1 15.74909932108338 4.083386561168257 7.584862407529867 0 0 0
1761 1 0.3817317542922433 6.756245240610254 7.041758670301828 0 0 0
1762 1 0.9217490762420478 7.715155330373671 7.135314061909374 0 0 0
1763 1 0.869641720045471 7.0266424639501945 7.91966782356497 0 0 0
1764 1 16.64992718513502 7.770707458916345 6.973371825645286 -1 0 0
1765 1 1.679823141737702 6.832945427910152 7.122858141302812 0 0 0
1766 1 2.6837162162257258 7.712544547655925 6.462874792607904 0 0 0
1767 1 3.0190779246287494 7.49274142014576 7.507320811093847 0 0 0
1768 1 2.076232676700562 7.9231386155074395 7.367149753634793 0 0 0
1769 1 3.840262207698198 7.21278255783748 6.801340470779238 0 0 0
1770 1 4.572547647182356 7.972755806770606 6.577721332563739 0 0 0
1771 1 5.276325862251537 6.568503557672611 7.991132009432066 0 0 0
1772 1 3.878534993284411 7.84848354050376 8.05419466378486 0 0 0
1773 1 6.105346094745842 7.0074544761911195 6.220542896485984 0 0 0
1774 1 6.806023620923843 7.832629870252461 6.4493570426118 0 0 0
1775 1 6.364525672800225 6.371291114630817 8.363997347673237 0 0 0
1776 1 6.222149800686098 7.082593685222446 7.303785782025572 0 0 0
1777 1 6.683117085741157 6.241897679053566 6.684427650401617 0 0 0
1778 1 7.611030162442532 7.1664523443957275 6.838550748126239 0 0 0
1779 1 8.281602863014879 7.145359151343607 7.7008095336799585 0 0 0
1780 1 6.695218011329955 8.126406920978768 7.577927116293288 0 0 0
1781 1 8.899556231368598 6.714063458873784 7.0207113988349565 0 0 0
1784 1 8.982596589786228 8.105276236334294 7.664387176874887 0 0 0
1782 1 9.537745535743102 7.872291374052192 6.914608802914986 0 0 0
1783 1 8.972921621038797 6.6637336017210504 8.271410817345654 0 0 0
1785 1 9.124096081102715 5.50621360473632 6.957776040917697 0 0 0
1788 1 9.789171576702081 6.9692276319642295 7.45952661884125 0 0 0
1786 1 11.55179530322248 7.135341807155216 7.625191878098778 0 0 0
1787 1 10.796098033979046 6.471193978360784 7.567864710306414 0 0 0
1789 1 11.440443146065766 6.615098329872518 6.530507850207763 0 0 0
1792 1 12.334358800351781 7.776721707265514 7.766875788001209 0 0 0
1790 1 12.325520291084752 8.184133976900311 6.566458628576978 0 0 0
1791 1 12.405093217695713 6.860737121431625 6.935526347784803 0 0 0
1793 1 13.266497635758848 6.400048808873307 6.404149171192584 0 0 0
1796 1 13.462068342978474 7.019723562252764 7.4234464668005575 0 0 0
1794 1 14.00332371858525 7.13992496609182 6.550065994725932 0 0 0
1795 1 15.089636087829144 6.747906653563392 7.016325731590163 0 0 0
1797 1 16.078783179226264 6.303800656279358 7.090705285023255 0 0 0
1800 1 15.59370794474453 7.608634099062641 7.5674365477877545 0 0 0
1798 1 15.971911034441202 7.227589563940719 6.435703329905453 0 0 0
1799 1 16.142856390234996 6.563805971734173 8.150925670256564 0 0 0
1801 1 16.184002171369105 9.309406613502958 7.2553103842106195 -1 0 0
1803 1 1.2929305855228166 8.784773066939973 7.2909056221720965 0 0 0
1805 1 2.249441304431163 9.00310105879464 6.999528216171478 0 0 0
1807 1 2.8960701822436237 8.630706497630007 7.652803831926989 0 0 0
1809 1 3.570436628433876 8.277477416923462 6.968089562614936 0 0 0
1811 1 4.2246374617997935 9.387967165365584 6.730412379165407 0 0 0
1813 1 5.0411531521945765 8.969005534712336 6.184644400196674 0 0 0
1815 1 5.5772709714144195 8.105778127134347 7.002302555351874 0 0 0
1817 1 7.478965471607281 8.684131366417377 6.582110261095683 0 0 0
1819 1 8.644241945692045 9.035344486087977 7.889710475557208 0 0 0
1821 1 8.612089729811023 8.566475329213226 6.5705445466540136 0 0 0
1823 1 9.552372590360294 8.821223691285347 8.352750138529242 0 0 0
1825 1 10.379120232145537 8.448624728203196 6.8210917373974045 0 0 0
1827 1 11.317969092270657 8.013397842237454 7.185339123199694 0 0 0
1829 1 11.940206520162139 8.788790290434987 7.741048006462216 0 0 0
1831 1 13.204490380935532 8.641951854933978 8.096593353654228 0 0 0
1833 1 13.37487927128439 8.14766633211071 7.066895442100503 0 0 0
1835 1 14.370024804401078 7.820550836785362 7.339460598185994 0 0 0
1837 1 14.954380774071836 7.675756420519057 6.51856867901388 0 0 0
1839 1 15.705997608661233 8.48574804404491 6.994675537942945 0 0 0
1802 1 1.0717534742960848 9.457825706443838 6.5186203485553635 0 0 0
1804 1 0.14131416633817426 8.686248282532441 7.54852725109219 0 0 0
1841 1 0.12505088870868816 10.287958171830477 6.425416277655046 0 0 0
1843 1 0.4424919074757033 9.675999014521693 7.428490269523482 0 0 0
1806 1 3.160674907768246 9.1953987190657 6.596723316874057 0 0 0
1808 1 1.9826609716858488 8.593774310426978 8.103593311394048 0 0 0
1845 1 1.8658853538624667 10.231158773392524 6.8131872021558655 0 0 0
1847 1 2.7302809670845325 9.819099192370802 7.640376076238791 0 0 0
1810 1 3.6310206850738633 9.94115542070907 5.899422806554649 0 0 0
1812 1 3.6985490883847647 9.5139248797006 7.706803219115726 0 0 0
1849 1 2.2099402073083336 10.282120206423851 5.8772646277976115 0 0 0
1851 1 4.040557260641081 10.500637523969079 7.413581080356425 0 0 0
1814 1 6.016912418988038 9.814333182792666 6.11727199146056 0 0 0
1816 1 4.962446900426978 10.15020001665559 7.109280862577079 0 0 0
1853 1 4.910821920671121 9.924446822039547 6.068282029203654 0 0 0
1855 1 6.024840825868243 9.911489286867413 7.369801587959836 0 0 0
1818 1 7.269581707781788 9.511627555016155 7.230899030675722 0 0 0
1820 1 6.40564745742722 8.962957589256622 6.78076054145818 0 0 0
1857 1 6.70101657383689 10.515981257618257 6.365887872446846 0 0 0
1859 1 8.24964903618203 9.927377657453958 8.178425844193342 0 0 0
1824 1 9.799376449823637 9.702246992014588 7.74840639045675 0 0 0
1861 1 8.806559881506988 9.993232037532929 7.185985924963288 0 0 0
1822 1 9.495111132978767 8.978643236661204 7.138751075189667 0 0 0
1828 1 10.53971996491585 8.803416998386911 7.777578981465517 0 0 0
1863 1 9.636322698596143 10.616557329179761 6.947464476172346 0 0 0
1865 1 10.294294866744153 9.637757846588732 6.842512476421935 0 0 0
1826 1 11.208364358315702 9.02560079087437 7.038926177294454 0 0 0
1832 1 12.840610327372683 9.578089586758495 7.6608772445688045 0 0 0
1867 1 11.193909076626214 9.836771873511582 7.692811257039319 0 0 0
1869 1 12.155593994424839 9.262905371220576 6.819839942302978 0 0 0
1830 1 13.278271033652096 9.268829178933212 6.219672177075034 0 0 0
1836 1 13.764303675819429 9.068347527709479 7.229908186021847 0 0 0
1871 1 12.946770558850035 10.087291913922341 6.777946975351043 0 0 0
1873 1 13.599653425241558 11.039100713581467 6.083290928879205 0 0 0
1834 1 14.00174341480079 8.482784431799145 6.065773740357155 0 0 0
1840 1 14.953225681679209 9.100484503733469 7.260657919752762 0 0 0
1875 1 13.93797763775427 10.049116140740104 7.786321858687819 0 0 0
1877 1 14.9165080155486 9.279866417575166 6.026381184967695 0 0 0
1838 1 15.988011314201737 9.294254515348536 5.717782754725281 0 0 0
1879 1 15.712600180732482 10.194305171517724 6.915002845178234 0 0 0
1842 1 1.0285459695411707 10.739585768280662 6.139525592239063 0 0 0
1844 1 16.726389931414985 10.626369656144526 7.468241171191503 -1 0 0
1881 1 16.24429151652925 11.709156232768253 7.465504093586684 -1 0 0
1883 1 0.3458874764124919 11.477929891521066 6.890784538786296 0 0 0
1846 1 1.5291391743827958 11.561424048762445 6.659684446667344 0 0 0
1848 1 1.0662048685359335 10.806779513177995 7.270806714800701 0 0 0
1885 1 0.8268834728364642 11.915055562454404 5.953309670327315 0 0 0
1887 1 2.041388046222425 11.057277982104111 7.736469029062393 0 0 0
1850 1 4.466727345478021 10.816249437730457 6.376817781030271 0 0 0
1852 1 2.9720015759908236 10.41654990412014 6.7427333585726945 0 0 0
1889 1 2.4373053302386136 11.176862475667825 6.34007403301341 0 0 0
1891 1 3.125743781056273 11.250766165293392 7.271661779254005 0 0 0
1854 1 6.23261285670927 11.550921441122405 6.87082659212628 0 0 0
1856 1 5.625142988758555 10.737794837230497 6.427554393509988 0 0 0
1893 1 5.17037380083991 11.571736889376087 6.535426848927262 0 0 0
1895 1 6.104794717843793 11.909097572707578 7.830023324608785 0 0 0
1858 1 7.591209471693346 11.51376729115946 7.1086278222877795 0 0 0
1860 1 6.934006388439744 10.579710271056468 7.537562669894819 0 0 0
1897 1 7.858043487122546 12.569418964509934 7.2622639939980065 0 0 0
1899 1 8.394546859983857 11.72228598443467 7.811821260029586 0 0 0
1864 1 8.525413534988326 11.003412475417921 6.950946428449879 0 0 0
1901 1 8.665313928580144 12.127564997466965 6.892382435733503 0 0 0
1862 1 9.696456648911889 11.804560850055116 6.207191258691422 0 0 0
1868 1 10.44037022560605 11.68855341507901 7.069658167544425 0 0 0
1903 1 9.438948066168741 11.700536117296828 7.5555949412307335 0 0 0
1905 1 10.69294049205847 12.311666150667996 6.115818645621772 0 0 0
1866 1 10.741417277412687 10.625815712595625 7.194271261775708 0 0 0
1872 1 11.864168792660882 10.45028973969177 7.094474569487593 0 0 0
1907 1 11.492624060006419 11.432402122721388 7.440215523481584 0 0 0
1909 1 11.99102896820525 11.841009462716585 6.515315013088678 0 0 0
1870 1 12.922936947613444 11.367788209653403 7.00491742224181 0 0 0
1876 1 13.391282976235734 10.84270899217757 8.121354088477243 0 0 0
1911 1 12.45229993815888 11.294454304453575 7.958978115037859 0 0 0
1913 1 13.931514314465675 11.97529586661287 6.772180441121038 0 0 0
1874 1 14.878456013489588 10.86675454483886 6.37372058952765 0 0 0
1880 1 14.903237058696607 11.117960209855573 7.435390655118877 0 0 0
1915 1 13.939312522617103 10.944706597013315 7.054116534512922 0 0 0
1917 1 15.46097208016139 11.89121182625793 6.734055493130224 0 0 0
1878 1 16.049624288012044 11.125447664562566 6.677255596049123 0 0 0
1919 1 15.31929626740528 11.669966545457447 8.42787462686301 0 0 0
1882 1 0.6601403111268328 12.562157812567733 6.918195879292318 0 0 0
1884 1 0.17143728231262467 12.711740400807761 7.942802809560129 0 0 0
1921 1 0.15143292172715367 13.71161689784031 7.68112322429225 0 0 0
1923 1 1.1056693375436744 13.41972653109577 7.429972551003938 0 0 0
1886 1 1.9849974997876108 12.461236514755978 6.612202581154494 0 0 0
1888 1 1.7161866621977313 12.24200415836288 7.85072477390685 0 0 0
1925 1 1.8524350105050942 13.471941581514512 6.7379647622212175 0 0 0
1927 1 2.80111730889389 13.65913596381494 7.333617072691725 0 0 0
1890 1 3.3431580960761442 11.92683893377425 6.564308593628837 0 0 0
1892 1 2.793547438741154 12.302382927759158 7.424329259710287 0 0 0
1929 1 2.6001512631464805 13.970944284840076 6.270961763714421 0 0 0
1931 1 3.6369018815211147 12.964982074670795 7.467435196140862 0 0 0
1894 1 5.891988661525315 12.689470485185641 7.168013469986683 0 0 0
1896 1 4.120547142492885 11.545297045664604 7.180199896000861 0 0 0
1933 1 4.801529288760283 12.698990405717312 6.907362114119574 0 0 0
1935 1 5.94814119509871 12.942814047172112 8.248011813723798 0 0 0
1898 1 7.3640478230597815 15.023801004795725 7.572774089648495 0 0 0
1900 1 6.8543610789539375 12.638919097438269 7.623742252221607 0 0 0
1937 1 7.084125413884205 13.60869672617903 6.528909809742997 0 0 0
1939 1 7.4010340147966245 13.510009779988847 7.439823083811004 0 0 0
1904 1 8.957345346670404 12.663549287108053 7.796291873561714 0 0 0
1941 1 8.217139253869993 13.450699633968458 6.634934900565288 0 0 0
1902 1 9.761577596283269 12.864244977246964 6.742836788313389 0 0 0
1908 1 10.069433332091762 12.667045381149999 7.66522675591798 0 0 0
1943 1 9.078526603575572 13.7733726787658 7.599848857487333 0 0 0
1945 1 10.918589950634336 13.403808399097644 7.518121932376635 0 0 0
1906 1 11.210919991352181 12.444998850921852 7.495884639141715 0 0 0
1912 1 12.479694407872756 12.185391416624817 7.457522139003397 0 0 0
1947 1 11.85162567793159 13.333848135735213 8.11474392853146 0 0 0
1949 1 11.615700476321164 13.877561566841681 6.970578285582224 0 0 0
1910 1 13.4336145104737 12.816232993396483 7.103212883720732 0 0 0
1916 1 13.700354911871706 11.976213455643403 7.731186585032484 0 0 0
1951 1 13.022763721327559 13.570610991445218 7.657332212111065 0 0 0
1953 1 13.338113574044861 13.474214453281643 6.255957897525689 0 0 0
1914 1 14.744940307148166 12.637432238859157 6.578904775068085 0 0 0
1920 1 15.39027646173935 13.201051754986901 7.301350414067872 0 0 0
1955 1 14.173299617468768 13.039850050728033 7.902087613956655 0 0 0
1957 1 15.768740449927312 12.860788259993734 6.333130395441662 0 0 0
1918 1 16.51709014441665 12.98474534135448 7.111650777487344 0 0 0
1959 1 16.04014422187228 13.604687368014321 8.383149027364249 0 0 0
1922 1 0.932027007534881 14.067518925761194 6.528028852049446 0 0 0
1924 1 0.17459196032188887 14.694206103318297 8.197661665101775 0 0 0
1961 1 0.20480895172136931 14.660654463823374 6.06793867004637 0 0 0
1963 1 0.858479609203127 14.531402306826722 7.5157555501368405 0 0 0
1926 1 2.611892438866312 14.639113376618 7.1564325467061005 0 0 0
1928 1 1.832468805665759 14.259979097228548 7.793156238201792 0 0 0
1965 1 1.673176744523617 14.752202370668206 6.8499639489976945 0 0 0
1967 1 2.4490002267269997 15.446079016632273 8.400645876048594 0 0 0
1930 1 2.883411514097538 13.010322253027343 6.50595696030621 0 0 0
1932 1 3.6346508930265804 14.132437934711314 7.6995754332865705 0 0 0
1969 1 3.5791136294969172 14.90956044116586 6.885876207217147 0 0 0
1971 1 4.306413186321234 14.995684966193897 7.696411323984631 0 0 0
1934 1 5.200732002479561 13.778230645366511 7.166416738659634 0 0 0
1936 1 4.469815443765473 13.246407313107873 8.190928405605087 0 0 0
1973 1 3.9252844931051336 13.704287611821153 6.800322629396228 0 0 0
1975 1 5.434003265979459 14.88266364830591 7.172793879521993 0 0 0
1938 1 6.560066659979632 14.564721561370849 6.772431199853267 0 0 0
1940 1 6.0331962247485125 13.500483732412588 6.460054407219113 0 0 0
1977 1 6.146487896800383 15.552187427884565 5.732056645370908 0 0 0
1979 1 7.253943617981912 14.505503249762494 8.481363491452491 0 0 0
1944 1 8.166344712041035 14.337166534842279 7.875852642861263 0 0 0
1981 1 8.500321859272395 14.43568459572485 6.846564541522621 0 0 0
1942 1 9.417116367559316 13.942823349292368 6.434361986206591 0 0 0
1948 1 10.146457080402778 14.077913808352376 7.323978471774268 0 0 0
1983 1 9.389155380774675 14.862038377995985 7.5252691214140075 0 0 0
1985 1 10.070706027976229 14.878799336936574 6.564662620546216 0 0 0
1946 1 10.867303882353854 14.224678312336343 6.336049151863865 0 0 0
1952 1 12.167337505529991 14.36721177791486 7.666553157648411 0 0 0
1987 1 11.025660510118433 14.755185223721515 7.271074211259298 0 0 0
1989 1 11.927253594035307 14.683199086029653 6.440520903840291 0 0 0
1950 1 12.766329014163265 14.254349764128124 6.641409670288995 0 0 0
1956 1 13.648593829411642 14.378707461869903 7.176487789970165 0 0 0
1991 1 12.74793717980955 15.218667682028462 7.020083126260415 0 0 0
1993 1 13.763300548017346 15.351206413507548 6.512284607603472 0 0 0
1954 1 14.216226850766034 13.529442116182903 6.898454729305016 0 0 0
1960 1 15.628267600508948 14.54710918769896 7.811857114430565 0 0 0
1995 1 14.78118990477379 14.524200284812554 6.883345752220105 0 0 0
1997 1 15.6288765925373 15.220169891295859 6.861422666198745 0 0 0
1958 1 16.536145582240863 14.531946449235404 7.0831370877789395 0 0 0
1999 1 16.14161232068092 15.428109434062264 7.886365723356907 0 0 0
1962 1 0.6654336079898306 15.249582921749829 6.686947246445573 0 0 0
1964 1 16.602986639479653 15.709352869354667 6.904442196808918 -1 0 0
1966 1 2.421619686458166 15.594010380379062 7.030183982329816 0 0 0
1968 1 1.5575604612760556 15.280686582549805 7.83339114068851 0 0 0
1970 1 4.505789983662634 15.667221191437845 6.741971639016166 0 0 0
1972 1 3.286499456309168 15.222550151453257 7.933117341186488 0 0 0
1974 1 5.979607428880707 16.606865765090088 5.7956507390452225 0 0 0
1976 1 5.069318997200138 15.669230150059056 7.763431420105366 0 0 0
1978 1 6.8142190871533 15.582035254154878 6.732926536100404 0 0 0
1980 1 6.112385962154871 15.96479190125825 7.492999154536445 0 0 0
1984 1 8.330740252598282 15.35987739203315 7.477732230483061 0 0 0
1982 1 9.18548077878421 15.6292275377369 6.802567975744202 0 0 0
1988 1 10.306605296183648 15.509140979035363 7.337780458474698 0 0 0
1986 1 11.063212889239312 15.493223019622343 6.5180215253496945 0 0 0
1992 1 11.712619785862076 15.486445847030195 7.371982194659833 0 0 0
1990 1 13.047895470949081 16.09103220063357 6.42457897346601 0 0 0
1996 1 13.820950278682183 15.71029013755029 7.455931870526706 0 0 0
1994 1 14.715879163200345 15.7528621963576 6.969352348893422 0 0 0
2000 1 15.475728408674911 16.245483822069573 7.693161406472129 0 0 0
1998 1 15.307185934971749 0.08411738925789573 6.747877878287203 0 1 0
2001 1 0.6093209929569934 16.64244759727529 8.190179673586035 0 -1 0
2002 1 0.8384271810029619 0.8255902514299325 8.700378353004501 0 0 0
2005 1 1.5517324931473606 0.4230480022437414 7.901412917392472 0 0 0
2006 1 1.7394341750953666 1.4356497581395609 8.336426673611218 0 0 0
2009 1 3.970463198965512 0.2089904603998163 8.642196024109577 0 0 0
2010 1 4.4553328511307555 1.0710154397619507 8.656311322237785 0 0 0
2013 1 5.299187669226463 16.74650294388071 7.868001108593174 0 -1 0
2014 1 6.247018134564707 0.4848821772812565 8.11402689020712 0 0 0
2017 1 7.512681741770882 16.125932090422946 7.192288686937028 0 -1 0
2018 1 6.752147069910383 0.2776776222862918 9.025754803403828 0 0 0
2021 1 8.316732912369488 16.14137341058773 8.391207683318305 0 -1 0
2022 1 9.006605585954542 0.7539717265801201 7.7869915866412915 0 0 0
2025 1 9.960501235085212 16.412583541682377 8.18103782054948 0 -1 0
2026 1 10.945405947657655 0.4468914634412851 8.235426106806635 0 0 0
2029 1 12.031138584816846 0.15386371413196875 7.992163579808745 0 0 0
2030 1 12.898741478009146 1.0761754300467263 8.622433383588623 0 0 0
2033 1 13.214174387197657 0.004452713490979912 8.131180760208766 0 0 0
2034 1 13.631843270866804 0.9782960412143688 7.730757680456774 0 0 0
2037 1 15.438128997240419 0.2983800412329791 8.312497233481924 0 0 0
2038 1 16.61131141674742 0.5094969219545822 8.864301914388346 0 0 0
2041 1 0.052225991810787964 1.498458389665437 8.263399821733776 0 0 0
2042 1 0.1953389296664898 3.0723093322121025 8.479892107767556 0 0 0
2045 1 0.8669636117961248 2.1836377419092114 8.49554752803694 0 0 0
2046 1 2.2605266826286683 2.5550624284223513 8.174811683177502 0 0 0
2049 1 3.3579493184862126 1.510933250174327 8.322550514173628 0 0 0
2050 1 4.312127865730411 2.1011219036799558 8.207590780217455 0 0 0
2053 1 5.4177411026687725 1.3533779903712535 8.184793553405937 0 0 0
2054 1 6.070729478156723 2.301589518318505 7.767768631921204 0 0 0
2057 1 7.569439775041589 0.877472696725782 8.524922180474784 0 0 0
2058 1 6.759999350798425 1.532841689805338 7.721973669983332 0 0 0
2061 1 8.313980996772905 1.2053694712186387 9.273894845573514 0 0 0
2062 1 9.165930640986856 1.9122113796261515 7.976851509973722 0 0 0
2065 1 10.027026746771062 1.3695538920503356 8.133369973023688 0 0 0
2066 1 11.326742169373219 2.3345986252274455 8.193940837082136 0 0 0
2069 1 11.925588184940345 1.4073344679365196 7.966262318098509 0 0 0
2070 1 11.778494220777764 2.8366076034586913 7.133061835670403 0 0 0
2073 1 14.23885354183192 2.9491515251470606 7.918798341169859 0 0 0
2074 1 14.311186267746988 3.538271761455515 9.02510201979288 0 0 0
2077 1 15.39344285233143 2.186698932609477 8.804239898699521 0 0 0
2078 1 16.32974373325044 2.6797949911340684 9.1745746061142 0 0 0
2081 1 16.03764223159953 3.5020466322982844 8.462336610846881 -1 0 0
2082 1 0.2689499276444685 4.1101274870699696 8.261925078815704 0 0 0
2085 1 1.394338909800762 3.1264466459306712 8.388710620164101 0 0 0
2086 1 2.1626257123976314 3.90614891244127 8.216394066579497 0 0 0
2089 1 3.0958736906817945 3.33901908917498 8.368723512225953 0 0 0
2090 1 4.084123428827889 3.9806490598839557 8.640779822827488 0 0 0
2093 1 5.035288078182943 2.9405563627002147 8.397096590299363 0 0 0
2094 1 5.992989801276921 3.4857869866194298 8.71727270555594 0 0 0
2097 1 6.940304786109394 3.002265977010806 8.347861768625764 0 0 0
2098 1 7.892380666621052 3.471460414961478 7.850488414040546 0 0 0
2101 1 8.759585522763325 3.8310444569588533 8.267830356857251 0 0 0
2102 1 9.430933700694837 4.9952598833875745 8.533597968348639 0 0 0
2105 1 10.034396549147873 3.8831883976514536 8.57441855502018 0 0 0
2106 1 11.131797604569416 4.588585858430313 8.371213869268022 0 0 0
2109 1 11.917841346114765 3.8120838617728094 8.040944198157183 0 0 0
2110 1 12.925959243449158 4.741601875702103 8.129796047740516 0 0 0
2113 1 13.655183683950623 3.8511512838237514 8.13253038242474 0 0 0
2114 1 14.175257980240517 4.67375389400707 8.57934481947228 0 0 0
2117 1 15.343952918031304 3.061634697430508 9.320550030679065 0 0 0
2118 1 15.03134998420687 3.9072784503623055 8.420168074619937 0 0 0
2121 1 16.084295138293097 4.60888548678984 8.503132453878978 -1 0 0
2122 1 0.48845185759078336 4.894366185212685 9.044522184110777 0 0 0
2125 1 1.3845894897758697 4.137567838101213 8.936988431394369 0 0 0
2126 1 2.210832685032618 4.954983347540613 9.006772670172916 0 0 0
2129 1 3.088067852401399 4.316262245870645 8.695660228223323 0 0 0
2130 1 3.717623423520288 5.43898275856497 9.171663651614246 0 0 0
2133 1 4.669501891158311 4.829618572277046 8.846945749027046 0 0 0
2134 1 5.581444587718578 5.737931408718701 8.615851391812464 0 0 0
2137 1 6.475632993502051 5.143055243673153 8.454475010669013 0 0 0
2138 1 7.395818256118984 6.385466289345078 8.638694458272811 0 0 0
2141 1 7.393499236413896 5.118649720839524 9.144654390670139 0 0 0
2142 1 9.14165886131024 5.893631643040917 8.996862851284208 0 0 0
2145 1 10.501164817380781 5.531410945441344 8.34874939398885 0 0 0
2146 1 11.294894362363763 6.661182661878663 8.572895628623982 0 0 0
2149 1 11.863509234247353 5.759056747073521 8.424022699192992 0 0 0
2150 1 12.89639232224639 5.675608041247507 8.444986556362162 0 0 0
2153 1 13.68902864795431 5.323678715219956 7.710555559226738 0 0 0
2154 1 14.256848681313622 5.722673086329915 8.71073082851969 0 0 0
2157 1 15.144311221353274 5.172765980416882 8.48099094839427 0 0 0
2158 1 0.019138568009718002 5.587101536066106 8.462214473147915 1 0 0
2161 1 16.729748848996238 7.34013890137964 8.00825685880291 -1 0 0
2162 1 0.6387688270617712 8.051098222820984 8.233773802469068 0 0 0
2165 1 1.1503461206429153 5.67623246153631 8.819357845056212 0 0 0
2166 1 2.0051680617346896 7.453443941483354 8.418162590511573 0 0 0
2169 1 3.8547475519589844 6.772810684929562 7.838579952489167 0 0 0
2170 1 4.9780842205672045 7.8000223674508895 7.953423786460135 0 0 0
2173 1 4.567414338617888 7.026222893174896 8.716588327994804 0 0 0
2174 1 6.018184501795518 7.455462100207851 8.318847436345534 0 0 0
2177 1 7.069046923169296 7.134499547967684 8.07065790469645 0 0 0
2178 1 7.803779185017011 8.085562684472935 8.198544812123027 0 0 0
2181 1 8.074214536573237 7.1682608744727405 8.945492014441294 0 0 0
2182 1 9.575662995917297 7.642164690388953 8.349082420939487 0 0 0
2185 1 10.14094375011624 6.610742816385639 8.574435455479351 0 0 0
2186 1 10.54693377037234 7.6384028178408085 7.803790819125186 0 0 0
2189 1 12.416380034376628 6.59506485419509 8.044370309936916 0 0 0
2190 1 13.551627650654392 6.605354737076777 8.29705325983149 0 0 0
2193 1 14.651653668403076 7.060959395562454 8.027122380118417 0 0 0
2194 1 15.314546760001777 7.505385285962195 8.653727982756774 0 0 0
2197 1 15.055951646730657 6.090383825754967 7.956313058250294 0 0 0
2198 1 16.094663501555264 6.859741425615028 9.156898336262627 0 0 0
2201 1 15.983958511142957 8.18719233610378 8.324509308721064 -1 0 0
2205 1 2.1847626161769114 8.501414174224308 9.218256523897715 0 0 0
2209 1 2.906552295308631 7.9365405816522365 8.480811267155259 0 0 0
2213 1 5.651156394137247 8.748470159794257 7.930953664038552 0 0 0
2217 1 7.525506288612368 9.072313216118543 8.531680450625943 0 0 0
2221 1 8.260974821314347 9.098116398451474 9.176726107373042 0 0 0
2225 1 10.285367550114778 8.183672132868434 8.875314988369107 0 0 0
2229 1 11.574111724993708 7.774689822430568 8.500143056069096 0 0 0
2233 1 13.802696190305982 7.728404537653932 8.33557177345201 0 0 0
2237 1 14.92439710345163 8.391233178080439 8.012442214537547 0 0 0
2202 1 0.9207012134870094 9.113608497804435 8.271130985514603 0 0 0
2241 1 16.531850625908344 9.742807654112676 8.222522647765363 -1 0 0
2206 1 2.7683207513536483 9.322713681163243 8.567320801794024 0 0 0
2245 1 1.1066976738256675 10.580127872228752 8.289391748875666 0 0 0
2210 1 4.406752596439683 8.565401609272264 7.4773985100351155 0 0 0
2249 1 3.0927319138450517 10.663246014934533 8.140465626738916 0 0 0
2214 1 6.544678994517888 9.139415197049768 7.8977906218279745 0 0 0
2253 1 5.430489670009083 10.199863448580453 8.26100285253309 0 0 0
2218 1 7.488179437142482 9.857474556913553 9.583985363636906 0 0 0
2257 1 7.136115123859598 10.015917197926955 8.474171038304783 0 0 0
2261 1 9.011566606046355 10.713012233393139 7.900288262327078 0 0 0
2222 1 9.135887711829266 9.636082963117397 8.637701672924482 0 0 0
2265 1 10.44974237538464 9.769475900581057 8.531807317912783 0 0 0
2226 1 11.271124090261946 8.82914832525978 8.60501613353498 0 0 0
2269 1 11.42410778277201 9.86240226039077 8.812475683598997 0 0 0
2230 1 12.302865237160352 8.498867916247487 8.663767632783484 0 0 0
2273 1 13.281883093446016 9.746698812831907 8.82875347635079 0 0 0
2234 1 14.145541982827472 9.072831401745814 8.199548191146059 0 0 0
2277 1 14.99589840272574 10.006298209996826 7.866808612570649 0 0 0
2238 1 15.60922665638517 9.196209665332843 8.162017347223998 0 0 0
2242 1 0.8656862199622152 11.591394264139495 8.044880432206709 0 0 0
2281 1 16.46812159423368 12.009023764357059 8.505545487329568 -1 0 0
2246 1 2.1419932212888906 10.354339476504112 8.634512537973206 0 0 0
2285 1 1.7099881620586435 11.379631316122412 8.738674097837217 0 0 0
2250 1 4.696235181463728 9.354488992383253 8.112795423544611 0 0 0
2289 1 3.4258525879831825 11.479723869703744 9.005907931294264 0 0 0
2254 1 6.389064387226728 11.112704752094322 8.515306577548834 0 0 0
2293 1 5.413511648778535 11.069061755947619 7.60552119001553 0 0 0
2258 1 7.847783618512506 10.92127755517187 8.27373259759117 0 0 0
2297 1 7.182241946715276 11.700945943354862 8.156528273299081 0 0 0
2301 1 9.474742683278553 11.400127986290695 8.695990268027497 0 0 0
2262 1 10.035132611372553 10.830998521135628 7.9455232038088255 0 0 0
2305 1 10.486107717089743 11.75797735429521 8.128516230036544 0 0 0
2266 1 11.092357256301597 10.863947909103873 8.28156846501117 0 0 0
2309 1 11.841332020444158 12.086662145667155 8.306488942116042 0 0 0
2270 1 12.247355933427025 10.274458011834872 8.268031733908849 0 0 0
2313 1 13.415479014730247 11.801705026646557 8.906431197655586 0 0 0
2274 1 14.275831311358242 11.45963140319159 8.490726811012323 0 0 0
2317 1 14.756278172070251 12.13505858890754 7.596185857905374 0 0 0
2278 1 15.874623472003055 10.488866918730741 7.96822776259056 0 0 0
2282 1 1.207471992144278 12.489090036522967 8.755412802450138 0 0 0
2321 1 15.816768798991816 12.779203081149078 9.065209768944063 -1 0 0
2286 1 2.545367301491201 11.810984610738569 8.395194175509449 0 0 0
2325 1 1.8878334310202667 13.350964883763334 8.271318624676088 0 0 0
2290 1 3.902653211473539 12.250619544543332 8.1964737904644 0 0 0
2329 1 2.910253938566664 12.976903126514959 8.327664762468569 0 0 0
2294 1 5.357061125434135 12.706358727068555 9.14636922646854 0 0 0
2333 1 5.094024182774061 12.297768561636653 7.839970294795732 0 0 0
2298 1 7.731126638046671 12.60214346408058 8.385958548189928 0 0 0
2337 1 6.327378752520489 13.713077894689611 7.591963504207135 0 0 0
2341 1 8.82016178549022 13.32426631764443 8.68793743115548 0 0 0
2302 1 9.837175209015689 12.673163160138795 8.656104146611472 0 0 0
2345 1 9.993992601834464 13.71853430116939 8.332395313861255 0 0 0
2306 1 10.930383953632765 13.034845978626091 8.571238455831935 0 0 0
2349 1 12.09794424130192 14.081139634444003 8.70635276192875 0 0 0
2310 1 13.180333091423567 12.668938238766401 8.447860404173383 0 0 0
2353 1 13.755972825955757 13.72705205525943 8.737064346728104 0 0 0
2314 1 14.511589390750865 12.467041909787257 8.64886694851571 0 0 0
2357 1 15.018622634099653 13.3966232840551 8.464652404200592 0 0 0
2318 1 15.651371591094346 12.56068530597066 8.08008761465306 0 0 0
2322 1 1.0467504008825124 13.850233504054964 8.517427643371434 0 0 0
2361 1 16.456657149669816 15.534994833636404 8.923101271152301 -1 0 0
2326 1 2.747254966952747 14.298435418113426 8.353445267780511 0 0 0
2365 1 1.5348255090221827 14.890254619802306 8.76962194111528 0 0 0
2330 1 3.7497719907994993 13.569178718867327 8.817472152049072 0 0 0
2369 1 3.7657236386033963 14.669136957879486 8.77881593287368 0 0 0
2334 1 5.08823023444036 14.353833557051948 8.284524555110254 0 0 0
2373 1 5.4415310694540135 15.327904899109068 8.722000043393074 0 0 0
2338 1 7.853872908603632 13.70117991955838 8.811900244170563 0 0 0
2377 1 6.1929458102160995 14.691265618110888 7.828590214664101 0 0 0
2381 1 8.286221533257626 15.157720272036972 8.691909081964196 0 0 0
2342 1 9.256751238954884 14.450322164284378 8.599249264360164 0 0 0
2385 1 10.26613051479461 15.039068182749018 8.402321442370853 0 0 0
2346 1 10.885001005039342 14.216602998629968 8.206420325759098 0 0 0
2389 1 12.105916111656333 15.246211393636283 8.348175936513318 0 0 0
2350 1 13.155485779252626 14.471464588197302 8.160092515548104 0 0 0
2393 1 13.129679401887675 15.638259074089488 8.331494618766307 0 0 0
2354 1 14.377455723679873 14.170089795538578 7.913184910556946 0 0 0
2397 1 15.227397570665548 15.351617448905811 8.406368113709599 0 0 0
2358 1 15.95345006513812 14.569550509846028 8.822536787683955 0 0 0
2362 1 0.46182272233039484 15.557660581644893 7.750089069990455 0 0 0
2366 1 2.356353727447751 16.32706057610321 7.816711547794495 0 0 0
2370 1 3.2699874317947604 16.275707365971638 8.16195963527421 0 0 0
2374 1 6.173640976736699 16.27526957726965 8.698406415528973 0 0 0
2378 1 7.427590116331793 15.589249486648617 8.51841427597674 0 0 0
2382 1 9.142025089295894 15.602166032682064 8.217064546846622 0 0 0
2386 1 11.514857724791426 16.140255764908407 8.334979319658885 0 0 0
2390 1 12.608296566663256 16.112724055989446 7.475702258843221 0 0 0
2394 1 14.225329260304223 16.178435932434756 8.388068729088548 0 0 0
2398 1 16.39131923383842 16.415899578205096 8.324613542410049 0 0 0
2003 1 1.0014823428518635 16.733799871306303 9.174958375354667 0 -1 0
2004 1 0.5254984047570351 0.6144943627708059 9.696905808054707 0 0 0
2401 1 0.4347618852845839 16.62093075370063 10.527575827120257 0 -1 0
2402 1 0.8262233373253829 1.0175082085688107 10.786996878178364 0 0 0
2007 1 2.437363288262464 16.438454056048744 8.938766307201178 0 -1 0
2008 1 1.8903840501526712 0.5557785099995782 9.008580269614164 0 0 0
2405 1 1.502751972400225 0.07281052997209964 11.111314068372815 0 0 0
2406 1 2.0895469541060905 16.73817726152564 9.882543209757717 0 -1 0
2011 1 4.386006051322644 0.4150060542266823 9.514752662790023 0 0 0
2012 1 3.54146895540448 0.953268854649116 9.282481715073441 0 0 0
2409 1 2.623076977062328 0.09818484380668614 10.905880897862389 0 0 0
2410 1 3.916760328273434 1.4708190655949154 10.108852773718782 0 0 0
2015 1 5.053170048543099 16.328650388542673 8.966396806373076 0 -1 0
2016 1 5.349608700383174 0.505330707097343 8.811019260777403 0 0 0
2413 1 4.87386340274691 16.621486968059518 10.150213764699394 0 -1 0
2414 1 6.338745780462601 0.8100830802245016 9.77903253822131 0 0 0
2019 1 7.880702241621676 0.07800070893075448 9.339696732643965 0 0 0
2020 1 7.063361154344821 16.565969073808635 8.075869900318072 0 -1 0
2417 1 7.087214579860953 0.05398896931130642 10.121245442236726 0 0 0
2418 1 8.223997527774275 0.23646952437837251 10.372510806983868 0 0 0
2024 1 8.739047351368384 0.394919742288273 8.77354045462435 0 0 0
2421 1 7.731687183075322 15.42994958489672 10.556049615969943 0 -1 0
2023 1 9.364113240825587 16.339129268984085 9.026642391131585 0 -1 0
2028 1 9.945611493685494 0.5600109004205532 8.895420510051762 0 0 0
2422 1 9.251950598792707 0.4119420840645622 9.708964109121005 0 0 0
2425 1 10.23934833017507 16.602899021630407 9.800628269312833 0 -1 0
2027 1 11.326758086464107 16.72299605287432 9.144532955674038 0 -1 0
2032 1 11.953103384645168 0.8466743285060572 8.9083757190218 0 0 0
2426 1 11.068166726376647 0.8532337153147597 9.640012392788998 0 0 0
2429 1 12.177091594758279 0.14144930988660634 9.753909931380354 0 0 0
2031 1 13.25982038384273 0.36018214667315923 9.305312467348253 0 0 0
2036 1 14.00573520722967 1.584893695833772 8.513584477984411 0 0 0
2430 1 12.897124095320173 1.1659505540474087 9.982763029981067 0 0 0
2433 1 13.740831564389044 0.9179678205858741 10.485687465271447 0 0 0
2035 1 14.42607304180339 0.30623464900774555 9.171734698317898 0 0 0
2040 1 15.102608117204039 1.1137360813219979 9.05402835019445 0 0 0
2434 1 13.804777701968922 0.11517529607942256 11.258169086936016 0 0 0
2437 1 14.86343095621759 0.6264917318529916 10.1663675036286 0 0 0
2039 1 15.531656080419936 0.13801328347369438 9.473654116295599 0 0 0
2438 1 15.807775407799488 1.0598528035945778 9.88528865033447 0 0 0
2043 1 1.393062763693128 1.423019940273161 9.440089800310913 0 0 0
2044 1 0.37436333979602543 1.6052726685364649 9.309529411122094 0 0 0
2441 1 0.018456479071193854 1.5328389972926049 10.487869101187979 0 0 0
2442 1 1.3836848833787498 1.8924637678854117 10.69496506599946 0 0 0
2047 1 2.6121509412650936 1.4446228377341912 9.069155568178742 0 0 0
2048 1 1.7318102852392978 2.377758714060365 9.131984086491293 0 0 0
2445 1 1.8308141602497223 0.8911614892509865 10.387672405814401 0 0 0
2446 1 2.598826560811112 2.034955867782801 10.010814721038182 0 0 0
2051 1 3.986542074169982 1.8606401154285657 9.235035786931798 0 0 0
2052 1 2.8305930298302715 2.518416530144959 9.02527467218865 0 0 0
2449 1 2.9169342338633673 1.0120982131937961 10.110771332532991 0 0 0
2450 1 4.763372709310773 2.1063263566400257 10.166391932273594 0 0 0
2055 1 6.209317950240497 1.3410395001718607 8.819048682508392 0 0 0
2056 1 5.04349465013866 2.0786235421976578 8.945793520478038 0 0 0
2453 1 5.173156714952869 1.122094767189009 9.645810157988052 0 0 0
2454 1 6.3452991646166135 1.9449684382848635 9.836087435485677 0 0 0
2059 1 8.218017372823942 2.1766381597647295 8.726589294901075 0 0 0
2060 1 7.143745018465658 2.033744856682422 9.058996662355831 0 0 0
2457 1 7.325956571213932 1.1495527648518917 9.668899692969607 0 0 0
2458 1 8.284494329228659 2.244449721842048 9.883457170228414 0 0 0
2064 1 8.634607151329712 3.1876702784892017 9.126699335291464 0 0 0
2461 1 9.214041437623912 1.4735425225861065 10.12231956768651 0 0 0
2063 1 9.139582125754378 1.3489378306331696 8.753301264869258 0 0 0
2068 1 9.344657857534132 2.1877554757919904 9.346480352828817 0 0 0
2462 1 9.050236164254743 3.117338552673434 10.041468384444546 0 0 0
2465 1 10.121597735263238 1.3686219613982553 9.34534549882669 0 0 0
2067 1 11.017586880500911 1.3784496493216298 8.626523779111974 0 0 0
2072 1 12.188281884796373 2.8102314992612603 8.646130414718094 0 0 0
2466 1 10.470509565190639 2.3723018519685923 8.984376187219741 0 0 0
2469 1 11.596633254939263 2.2637863472968083 9.272153451415146 0 0 0
2071 1 12.566251974001812 1.903230930646501 9.100859320170667 0 0 0
2076 1 13.354318821175896 2.875898647477508 8.61819562237831 0 0 0
2470 1 12.659037198728399 2.972053689852388 9.491760399376341 0 0 0
2473 1 13.436715247931652 2.2346183803640125 9.661815448514492 0 0 0
2075 1 14.442163496058326 2.4286237059204647 9.017959231708732 0 0 0
2080 1 15.15343967609909 1.9934497732299035 9.869946355398358 0 0 0
2474 1 14.474795237725266 2.9569326660826647 9.961309520847786 0 0 0
2477 1 14.24989919844093 1.5000853586612495 9.533125755370888 0 0 0
2079 1 16.186578130669538 1.5662693714637723 9.032900172881293 0 0 0
2478 1 16.159575787885686 2.217045455826398 10.133569250761912 0 0 0
2083 1 0.8666798085425079 3.052241456252953 9.273452032878987 0 0 0
2084 1 16.785310828773458 3.81077588592917 9.217813225156224 -1 0 0
2481 1 0.6186972211928494 2.304989537564589 10.098305287051655 0 0 0
2482 1 0.3553717037999399 3.4790154041646875 10.179933292840746 0 0 0
2087 1 2.105310844600069 3.2966617921810695 9.307073622552723 0 0 0
2088 1 1.5028994942891951 3.7682550185411117 10.190673905043596 0 0 0
2485 1 1.6398344237643836 2.749379134977399 10.097176100010076 0 0 0
2486 1 2.6939595480243677 4.270143340921742 10.817811834968312 0 0 0
2091 1 3.9680053817087284 3.014811060159041 8.87086027895415 0 0 0
2092 1 2.498242874458054 4.135559834071961 9.737174413280895 0 0 0
2489 1 3.6597370053207943 2.525697528074106 10.065532475115543 0 0 0
2490 1 3.26259635384313 3.4560955109450187 9.48619159078763 0 0 0
2095 1 6.109958277693737 2.40709716663154 8.84497526877048 0 0 0
2096 1 5.003884746598356 3.894410622675322 9.195941665082074 0 0 0
2493 1 5.537839814522757 2.9850956766528776 9.607496151424685 0 0 0
2494 1 6.13352487027989 3.7781374558829093 9.83805556501073 0 0 0
2099 1 7.635894457539107 3.0217982414694724 9.131778521347938 0 0 0
2100 1 6.828549804845574 4.000946569086604 8.906361811811415 0 0 0
2497 1 7.810042851144331 3.1936902090474737 10.302743606137271 0 0 0
2498 1 6.7721144969072355 2.9597827782695503 9.618134204851088 0 0 0
2104 1 7.844519416675758 3.9408273309736708 8.96030732518392 0 0 0
2501 1 8.499238197623459 4.115453483929158 10.115686316454866 0 0 0
2103 1 9.28357408291913 2.8008181102835215 8.416869517894348 0 0 0
2108 1 10.29216175207475 4.78298447733316 9.26916286698875 0 0 0
2502 1 9.28432307814429 4.08017694930492 9.213507137058945 0 0 0
2505 1 10.19770490275558 3.6317312011678635 9.624401793238668 0 0 0
2107 1 11.194196295490558 3.579886928202031 8.727732593093048 0 0 0
2112 1 12.009240755593856 4.723026498062316 8.777597042953708 0 0 0
2506 1 11.261022670641696 4.451268866959749 9.611983418410336 0 0 0
2509 1 12.031101562766587 3.785438126521726 9.410023565149723 0 0 0
2111 1 12.833112424056468 3.723831285686326 8.72805616429345 0 0 0
2116 1 13.309962080121501 4.658359768934654 9.125795068331133 0 0 0
2510 1 12.701733358053117 4.479254230989434 9.970521977802363 0 0 0
2513 1 13.464472369807854 3.5629012554746966 9.761711244851321 0 0 0
2115 1 14.18830242962291 4.369615857119721 10.015869507824501 0 0 0
2120 1 15.781667277132899 3.9628483806059576 9.451462935634586 0 0 0
2514 1 14.415993108786036 4.701626607715628 11.055673948180788 0 0 0
2517 1 15.10860255303152 2.7485764534201134 10.761041617381977 0 0 0
2119 1 16.090238367878403 3.3140687010545284 10.165235712390066 0 0 0
2518 1 15.897284822046085 4.2516745240955975 10.710075540954163 0 0 0
2123 1 0.7845646230423832 4.472284472424709 9.904622803296299 0 0 0
2124 1 0.31529869713925535 5.747439828799185 9.64189732503498 0 0 0
2521 1 16.56210838642839 4.845883807537318 10.049462790012125 -1 0 0
2522 1 1.0606947038547707 6.578959078474188 9.824067140430621 0 0 0
2127 1 2.745738557794645 5.31701447927486 9.77797239624137 0 0 0
2128 1 1.4241274661017223 5.50926322729032 9.767042034256104 0 0 0
2525 1 1.8489254648318796 4.789454191179204 10.379257435161927 0 0 0
2526 1 3.2354783729352814 5.172585792967624 10.866181480970136 0 0 0
2131 1 3.5632218323757607 4.470712722167925 9.613402443703832 0 0 0
2132 1 3.757753393917018 6.418607583682977 8.848935364004836 0 0 0
2529 1 3.7126076021483096 3.7194086381065685 10.412055637592372 0 0 0
2530 1 2.0842889704764316 6.606472326818678 10.169847669477159 0 0 0
2135 1 5.682112009243952 4.606942191717375 9.049163561153447 0 0 0
2136 1 4.8193746191342495 5.953047974836612 9.426798126126348 0 0 0
2533 1 4.790974842219002 4.87463300220796 9.863638730757913 0 0 0
2534 1 5.710234851791234 5.637485887502895 9.814371484692561 0 0 0
2139 1 7.412230183143101 4.167914032049912 9.883957641007465 0 0 0
2140 1 6.669102434062921 5.953705027355557 9.2859210654905 0 0 0
2537 1 6.574749961700175 4.6969570367373645 9.66262274465159 0 0 0
2538 1 7.291007518532701 5.431094337840566 10.129008123451134 0 0 0
2144 1 8.1880193911528 5.951509363910354 9.221237563747929 0 0 0
2541 1 8.238174426653876 5.204317456188886 10.207829531559874 0 0 0
2143 1 9.343120424950245 5.125620800951966 9.60994016646031 0 0 0
2148 1 10.101293214674833 5.957411661527868 9.39645427246008 0 0 0
2542 1 8.805322567521609 6.003035157433986 10.033566183170171 0 0 0
2545 1 10.641782249384343 4.183161567960008 10.420974295964474 0 0 0
2147 1 11.195179889422526 5.578763199207092 9.252389786351033 0 0 0
2152 1 12.132787332102183 6.438666283028359 9.203976314597062 0 0 0
2546 1 10.775552198105704 6.0552576930871185 10.346546060226567 0 0 0
2549 1 11.576757320337812 5.350642679800774 10.165622945103367 0 0 0
2151 1 12.543827200184337 5.406484529805105 9.441266316805502 0 0 0
2156 1 13.972382747574429 5.90917331855858 10.635452496415967 0 0 0
2550 1 12.868858807436455 6.0210885702911 10.445939008265972 0 0 0
2553 1 13.372761989730064 4.995281905531467 10.640747047024965 0 0 0
2155 1 14.98129015281571 4.849206280621771 9.550808610598196 0 0 0
2160 1 14.843429377323824 5.921861030607415 10.00436494176466 0 0 0
2554 1 14.014770234994586 5.3573920751748725 9.719520909986588 0 0 0
2557 1 15.534357266422056 5.203580803610403 10.458856566864862 0 0 0
2159 1 15.931509215355847 5.321083333582113 9.300809588904547 0 0 0
2558 1 16.023139995878523 6.0834106072644545 10.038429886859719 0 0 0
2163 1 0.26730668642049465 6.526173881577334 8.943613985067191 0 0 0
2164 1 16.664898347334038 7.810343218781153 9.163573648248235 -1 0 0
2561 1 16.66936133868581 7.033215920834724 9.975631348799627 -1 0 0
2562 1 0.9007950303276074 7.611362799991446 9.97799643370331 0 0 0
2167 1 2.1275535675531856 6.081908201128756 9.24063961379062 0 0 0
2168 1 0.9611488646843084 7.381316840313535 9.020611695332335 0 0 0
2565 1 1.3914807717568352 7.901628723387435 10.910258968075999 0 0 0
2566 1 2.120183281494058 8.044390069813023 10.271187993671605 0 0 0
2171 1 3.9733549110738853 6.934295082175592 9.823896851084262 0 0 0
2172 1 3.758055045468088 7.734093560485301 9.156112709418675 0 0 0
2569 1 1.8847719134200307 7.393561472758458 9.510098005972896 0 0 0
2570 1 4.118416996637571 8.441789424217768 9.92337728758953 0 0 0
2175 1 5.646065046494573 6.666120087971836 9.097987999127364 0 0 0
2176 1 4.898864989903333 7.569269574814238 9.548407551021443 0 0 0
2573 1 5.071898727504595 6.640990073400937 10.29411400546578 0 0 0
2574 1 5.881392521585746 7.471440395330805 9.816326745450766 0 0 0
2179 1 6.819132743509683 7.0871577709515865 9.225992633823964 0 0 0
2180 1 6.812476245750353 8.104478620238298 8.818120895595154 0 0 0
2577 1 6.1879274224697545 6.552688715026857 10.08807184745103 0 0 0
2578 1 7.364126558658643 7.686514175847504 10.056684620875448 0 0 0
2184 1 8.781644864571833 8.190230293506973 8.75812188910538 0 0 0
2581 1 8.047325483411353 6.851942748099235 10.000351057974067 0 0 0
2183 1 9.11996843461175 6.874634752798468 9.644362698041675 0 0 0
2188 1 9.559524524565697 7.880085204301072 9.673405869087018 0 0 0
2582 1 8.866257529126642 7.119576899587412 10.701646180549911 0 0 0
2585 1 9.84809831014586 6.579687208857175 10.310896931328218 0 0 0
2187 1 10.6085392208819 6.985758005289028 9.499914933947593 0 0 0
2192 1 11.71503539585277 7.2181769201236525 9.541519242838211 0 0 0
2586 1 10.651311412240771 7.478373455161162 10.462793207279638 0 0 0
2589 1 11.957107899661898 6.414510720965263 10.287194318848648 0 0 0
2191 1 13.320407955700567 6.2775722081172844 9.279972674348263 0 0 0
2196 1 13.334926437290882 7.3895700649736415 9.376387083091316 0 0 0
2590 1 12.550921111745993 7.39232412755365 10.303241743582813 0 0 0
2593 1 13.448672056445751 6.845812502909329 10.185915075838274 0 0 0
2195 1 14.308664006483122 6.678168051628097 9.36400870027108 0 0 0
2200 1 15.708043545505175 7.846161258179855 9.635717469609427 0 0 0
2594 1 14.347170735441532 7.795444495860117 9.34102944408027 0 0 0
2597 1 15.278910010271275 6.824037049983288 10.019283645848937 0 0 0
2199 1 15.336614698807223 6.124649259333725 9.129589912727553 0 0 0
2598 1 16.02971213339615 7.727300569417816 10.581399590353804 0 0 0
2203 1 16.775250609835776 8.803368258284337 8.754671740201843 -1 0 0
2601 1 0.08171251696934424 8.355432626478231 10.192702676563924 0 0 0
2207 1 2.693447772521734 6.67580592372525 8.550284394224418 0 0 0
2605 1 0.8453120498354795 8.387178188224444 9.308824764878619 0 0 0
2211 1 4.821130325852084 8.400637123274189 8.803147474366995 0 0 0
2609 1 3.2232219047737076 8.525276716721732 9.449766225478793 0 0 0
2215 1 5.913467786562361 8.462705717538347 9.398328067557237 0 0 0
2613 1 5.341143408217355 8.48804044608032 10.37179600537026 0 0 0
2219 1 7.33538468540532 8.546917821539104 9.589500377483283 0 0 0
2617 1 6.466805352276224 8.323659484277337 10.35697493932477 0 0 0
2621 1 8.455268580298975 8.115080463653184 9.819599417959573 0 0 0
2223 1 9.544422734425243 8.912827533389569 9.502439869836358 0 0 0
2625 1 9.880738705514261 8.56103999303191 10.512933089425783 0 0 0
2227 1 10.76325620569356 8.30400978172846 9.869794532206386 0 0 0
2629 1 11.810469991531031 8.128537817633406 10.514836265058491 0 0 0
2231 1 12.60768566935316 7.565733938664786 8.70217047955954 0 0 0
2633 1 13.740657534680432 8.363774083199008 10.093279776072041 0 0 0
2235 1 15.095399686157434 8.549976365820458 9.1780674673143 0 0 0
2637 1 14.778594497279732 9.106980801577429 10.048190195884462 0 0 0
2239 1 16.05780592738712 8.876610338029973 9.457836059418925 0 0 0
2204 1 0.13607824179416644 9.38999825822688 9.633521278141998 0 0 0
2243 1 0.8293375910878563 10.248302952889667 9.27920979896994 0 0 0
2602 1 0.9094556296801535 10.030062827195584 10.338653129816038 0 0 0
2641 1 16.58380219821834 10.222707146421095 10.309965343046112 -1 0 0
2208 1 1.4904727505290893 9.45322564737053 9.032734820588969 0 0 0
2247 1 3.005430206950425 10.820364576889283 9.988520637526916 0 0 0
2606 1 2.827149265322189 9.526768087303378 9.700094629889913 0 0 0
2645 1 1.7686471930006098 9.617176016361386 10.089310526225521 0 0 0
2212 1 3.879577309322853 8.752937530983704 8.61458398587817 0 0 0
2251 1 4.375187681280638 9.365801751733699 9.281655303391615 0 0 0
2610 1 4.617925209312099 9.27065513051038 10.488441294298589 0 0 0
2649 1 3.7009152158380645 9.850982440663081 10.295519405061833 0 0 0
2216 1 5.433093405543523 9.25023880009521 8.908990745070053 0 0 0
2255 1 6.230536933609097 9.993666956308772 8.899696849368372 0 0 0
2614 1 5.455435406702506 9.638194103997957 9.919508369282973 0 0 0
2653 1 6.0599253011245615 11.292454738257675 10.890361265434112 0 0 0
2220 1 6.689092329750586 9.182739965082407 9.248864414485698 0 0 0
2259 1 8.670119190816004 10.716572065996262 8.866222081285144 0 0 0
2618 1 8.306010716254272 9.056047431683828 10.362779049509053 0 0 0
2657 1 7.251316630807788 10.922490354187152 9.215158467099357 0 0 0
2224 1 8.947771569686509 9.790241433256742 9.77020645977787 0 0 0
2661 1 8.244343594093435 10.567188172167622 9.902944495259707 0 0 0
2228 1 10.681672496800232 9.2644553916673 9.584232837477819 0 0 0
2263 1 9.73837701415961 10.425391808326138 9.029032815990897 0 0 0
2622 1 9.175359906876055 9.269147533267233 11.183694741448697 0 0 0
2665 1 9.972882337499462 9.785766242937637 10.152199718647267 0 0 0
2232 1 11.654534810873068 8.83730182919939 9.68464772124937 0 0 0
2267 1 10.853557931684527 10.288357386633146 9.856445023240015 0 0 0
2626 1 11.011386834132477 9.293831594104011 10.568894945723141 0 0 0
2669 1 11.486963769183161 10.34185510490365 10.76244469294774 0 0 0
2236 1 13.546333753666847 8.45137244746591 9.111838890580543 0 0 0
2271 1 12.049276008199863 10.108642366750821 9.732886105703932 0 0 0
2630 1 12.621596380439664 8.21287178666958 9.629151067771904 0 0 0
2673 1 12.716102283011285 9.184479313714938 9.456279656904774 0 0 0
2240 1 14.872290593743267 9.570120166601829 8.957439354967777 0 0 0
2275 1 14.002724122646354 10.397990394257004 9.096054245474608 0 0 0
2634 1 13.919708602174625 9.3632850204574 9.523565634500459 0 0 0
2677 1 14.922883120448 10.339398923924533 9.848269961950143 0 0 0
2279 1 16.111407415220665 10.14543389153319 9.090222105735526 0 0 0
2638 1 15.70501149753088 9.65060422941864 10.045534329797501 0 0 0
2244 1 0.07688607754166757 10.657434670846804 8.464876264069341 0 0 0
2283 1 0.7469583488015523 11.281485674014231 8.987928804530046 0 0 0
2642 1 0.6605255583628736 11.27054390759162 10.381979046687428 0 0 0
2681 1 16.786960294710006 10.874659913709886 9.596933042117486 -1 0 0
2248 1 1.8835626951024496 10.561323496301169 9.624467103138766 0 0 0
2287 1 2.475049323904687 11.531433841210442 9.47074236564704 0 0 0
2646 1 1.8618109598986174 11.209269212199386 10.477408460185384 0 0 0
2685 1 1.4423252316886466 11.802155246988729 9.619911508471729 0 0 0
2252 1 3.4539748215668897 10.3647573215613 9.138392529234046 0 0 0
2291 1 3.785408363828583 11.742751685082549 10.056685135961871 0 0 0
2650 1 4.331496415318977 10.528053926229164 9.80430083825586 0 0 0
2689 1 2.954794029716859 11.687436300986251 10.807561117244978 0 0 0
2256 1 5.30996086491495 10.538674024737588 9.289797392574327 0 0 0
2295 1 5.525642501908492 11.796308816845862 8.729619726118996 0 0 0
2654 1 6.14198691140802 11.360354915302878 9.703496214055166 0 0 0
2693 1 4.690519329618506 11.514532626363875 9.324461128865858 0 0 0
2260 1 6.925753109053864 12.010419656103316 9.170837030508784 0 0 0
2299 1 7.964714846004004 11.641463599618831 8.911377255189866 0 0 0
2658 1 8.913527878587562 11.36461487555482 9.772663147679625 0 0 0
2697 1 7.836106997 11.639368615940857 9.964578143216606 0 0 0
2264 1 9.96858262561753 12.02714062129167 9.566873247949337 0 0 0
2701 1 8.564994432095503 12.487383632902718 10.424093873468685 0 0 0
2268 1 10.48045055161876 11.12888796206317 9.223311878031796 0 0 0
2303 1 9.888759425562814 10.97745683098936 10.220980078572808 0 0 0
2662 1 9.258877446426728 10.36634954057087 10.739568443568853 0 0 0
2705 1 10.712862760803223 12.437694495367824 10.517544667383131 0 0 0
2272 1 11.535185305950456 10.976466884694956 9.227992120000652 0 0 0
2307 1 11.077919823775224 12.23759247778755 9.459315707081362 0 0 0
2666 1 11.008616598516985 11.433596477252683 10.14269695132239 0 0 0
2709 1 11.846447487416265 12.353090906674618 10.278413560131812 0 0 0
2276 1 12.69113656901675 10.951397191244569 9.148441246250059 0 0 0
2311 1 12.211396090825476 11.83628845265493 9.38400845503292 0 0 0
2670 1 12.067867406729638 11.1331617097251 10.064158561928158 0 0 0
2713 1 13.11437211031519 11.547538278044032 10.181463320327488 0 0 0
2280 1 15.16752944001116 10.594219573755028 8.79943521913454 0 0 0
2315 1 14.006384227743375 11.292293761560202 9.682979861164153 0 0 0
2674 1 13.075165290047016 10.354440886455341 9.891854144768068 0 0 0
2717 1 15.076561277844931 11.639364486344304 10.185556429377284 0 0 0
2319 1 15.981538343581226 11.549476957395708 9.261934231048603 0 0 0
2678 1 15.841905625485861 10.74032464713774 9.940577959002695 0 0 0
2284 1 0.3576952415158636 12.236822489708786 9.473715459428371 0 0 0
2323 1 0.023304773499341392 12.985169566153704 8.893125147733164 0 0 0
2682 1 1.1265591074638461 12.713989601425899 10.214926799399963 0 0 0
2721 1 16.558205961964465 13.014015998706558 9.906650099450102 -1 0 0
2288 1 2.1428632115831903 12.726844672730724 9.320426251026912 0 0 0
2327 1 2.7862567340706375 13.802812710680698 9.505651221470215 0 0 0
2686 1 2.2134334390604358 12.224404071096947 10.370460535932466 0 0 0
2725 1 2.005750374143279 13.416938555654504 10.324131493883169 0 0 0
2292 1 3.327326064661657 12.456463754494544 9.411827450735204 0 0 0
2331 1 4.304354745038968 12.620437463599657 9.152727151337547 0 0 0
2690 1 3.724678760923933 13.336665008695622 10.076646737848728 0 0 0
2729 1 2.853829454180065 13.980518164544183 10.689501734215604 0 0 0
2296 1 4.661026080645372 10.97387096890104 8.343228983349992 0 0 0
2335 1 4.732307096758743 13.579528593612089 9.445343636360167 0 0 0
2694 1 5.504961435863157 12.002907112892828 10.05615813911341 0 0 0
2733 1 4.505597997439742 12.487672031371952 10.187880925017277 0 0 0
2300 1 6.741098067953435 12.019996775768723 10.175192632469033 0 0 0
2339 1 7.804992121938545 12.712573840424556 9.459719101415045 0 0 0
2698 1 7.694826827172876 13.12483773210915 10.490605514177945 0 0 0
2737 1 6.3370562486656565 13.065291051096033 9.489542172399643 0 0 0
2304 1 8.739362114670561 12.250699941734325 9.289566334647656 0 0 0
2741 1 8.508893988106276 13.369562425635323 9.783935845294096 0 0 0
2308 1 10.318849930675745 13.128172296150005 9.539209343239243 0 0 0
2343 1 9.421445862913501 13.778945083871399 9.423874266847534 0 0 0
2702 1 9.438235629607222 12.930339171094372 10.133950292152637 0 0 0
2745 1 10.425914705990975 13.884307771521353 10.209483629696724 0 0 0
2312 1 11.859470587476116 12.892084636060458 9.276334868638624 0 0 0
2347 1 11.151616870177273 13.826322192240998 9.249786197777265 0 0 0
2706 1 11.319668861915273 13.207016334377471 10.144023177041623 0 0 0
2749 1 12.079626928983387 13.785509663848279 10.751470678972712 0 0 0
2316 1 13.336133454888003 12.68438363946246 9.564637304663343 0 0 0
2351 1 12.97553154823735 13.709437375337766 9.471209703941351 0 0 0
2710 1 12.665381531891992 13.069468745078494 10.297282139365672 0 0 0
2753 1 13.741833767802218 13.38533371901512 10.378025995376516 0 0 0
2320 1 15.124685913436185 12.10365559814825 9.369848956622787 0 0 0
2355 1 14.426737041621996 13.374038576882446 9.498393489857554 0 0 0
2714 1 14.276048438818938 12.411414164880973 9.870626483794938 0 0 0
2757 1 15.38057533900951 12.973083576319889 9.974109332198273 0 0 0
2359 1 15.60199756407342 13.84474401092242 9.390713521518297 0 0 0
2718 1 16.019466486803225 11.995599469312882 10.171613087590455 0 0 0
2324 1 16.669335593392518 13.970014827764041 9.339117589755563 -1 0 0
2363 1 0.3965888941380343 14.777190035710072 9.264710396367356 0 0 0
2722 1 0.8518821225187057 13.446078494114678 9.523886115456476 0 0 0
2761 1 0.13030675685892776 15.517888946003858 9.921772915726413 0 0 0
2328 1 1.7417567088911716 14.003874536075996 9.556868541354724 0 0 0
2367 1 2.130500297228531 15.395898387383594 9.429873328976655 0 0 0
2726 1 1.7477425368610178 14.251646691915893 10.608663040422329 0 0 0
2765 1 1.1163036240483382 14.756561215303456 9.912443011084424 0 0 0
2332 1 3.063969753919664 14.838995090871878 10.203527601601724 0 0 0
2371 1 4.607602664526967 15.046264110775907 9.18310720316254 0 0 0
2730 1 3.9648533839317097 14.315958988899586 9.83744145959116 0 0 0
2769 1 3.5096818243242454 16.07228537221303 10.477176437145491 0 0 0
2336 1 5.595712109707418 13.681471583873417 10.119616704204423 0 0 0
2375 1 5.867291562568638 14.03928712841021 9.005986749672765 0 0 0
2734 1 5.06051515376142 14.612052335378971 10.072010177451833 0 0 0
2773 1 3.885569902875829 15.097027807822801 10.698838291458072 0 0 0
2340 1 6.966020188195353 13.293439027982137 8.419769603766227 0 0 0
2379 1 7.335600798902503 14.977680270985148 9.609902581483405 0 0 0
2738 1 7.236907002290193 13.837562014650175 9.694462589098382 0 0 0
2777 1 6.423777850839855 14.291778869519174 9.955312206669342 0 0 0
2344 1 8.428493356408065 14.340662525830576 9.24862126350666 0 0 0
2781 1 8.816969037768695 15.13419379693639 9.80010942134907 0 0 0
2348 1 10.370546007300742 14.501518853501821 9.350746143416936 0 0 0
2383 1 9.725520059924815 15.355226237575105 9.237642815275958 0 0 0
2742 1 9.563739529190368 14.614692260063354 10.299385618490316 0 0 0
2785 1 9.838546775511505 15.72921939066032 10.292244926991632 0 0 0
2352 1 12.025078390702166 13.926071233456117 9.72623319276207 0 0 0
2387 1 11.374075025762775 14.849279326509112 8.965050978105168 0 0 0
2746 1 11.375474627861212 14.549927768687173 10.176541938132795 0 0 0
2789 1 11.861022693959894 15.74253263649827 9.29541924655118 0 0 0
2356 1 13.943481197254163 14.268981856173637 9.634260238604755 0 0 0
2391 1 13.041650962794597 14.908242593538382 9.246879351462606 0 0 0
2750 1 13.140131752469054 14.343242409565063 10.373919280967309 0 0 0
2793 1 13.978053365915597 15.193586912085786 10.12233415697177 0 0 0
2360 1 14.812767633492086 14.30085917743054 8.914944204021529 0 0 0
2395 1 13.94807435348246 15.005213437802217 8.631931187034706 0 0 0
2754 1 14.68385830573215 13.869146472549643 10.400313096487222 0 0 0
2797 1 14.967947536394751 14.831439255241555 9.814252436698675 0 0 0
2399 1 16.058356335637882 14.916843467847622 9.783682561449025 0 0 0
2758 1 16.052636536601835 13.87322031824682 10.364853840761423 0 0 0
2364 1 16.549499438720925 16.559382662205177 9.748552939981021 -1 0 0
2762 1 0.6076227243141887 15.816109409528751 8.954232841860131 0 0 0
2368 1 1.6205396983956435 16.09125277849852 8.525666694734106 0 0 0
2766 1 1.0907577866357445 15.806261626072542 9.866673393323563 0 0 0
2372 1 3.8113881590102614 0.3718392303456434 10.444796098905412 0 1 0
2770 1 3.2206922998262115 16.794733991810855 9.620663042752641 0 0 0
2376 1 5.108056033946451 15.69990719570506 9.87593664732791 0 0 0
2774 1 5.941144038942611 16.59255132202023 9.689967116897623 0 0 0
2380 1 7.068513206825484 16.045902456571046 9.529540085659976 0 0 0
2778 1 7.192822973701998 14.56868237026014 10.80558216236439 0 0 0
2384 1 8.051700009311446 15.886022418162002 9.710525040765003 0 0 0
2388 1 10.638839846124727 15.899710721803089 9.034230155223147 0 0 0
2782 1 8.939110732101978 16.21794650419255 10.223703111067886 0 0 0
2392 1 12.60235905960597 16.337922703561766 8.840778820929675 0 0 0
2786 1 10.882182484429157 15.35099303639085 9.81585171007879 0 0 0
2396 1 13.561522911619035 16.212563842574127 9.199959910174352 0 0 0
2790 1 12.93146280793715 15.673502554738882 9.951817539527681 0 0 0
2400 1 14.585555920053267 15.646984691011639 9.269758788225149 0 0 0
2794 1 13.991521717172745 16.734213618891705 10.066756217546402 0 0 0
2798 1 15.507757396726646 16.009237464254607 9.784932691164823 0 0 0
2403 1 0.2985699919335017 16.277616577058943 11.691777006315272 0 -1 0
2404 1 16.557554378128323 0.6219185479617331 10.803141140689494 -1 0 0
2801 1 16.14520275415184 0.12164960464229208 11.764951565642642 -1 0 0
2802 1 16.41501376958818 1.3769976471521377 11.548079219642087 -1 0 0
2407 1 2.6649444581930952 15.941475030675688 11.478141811720677 0 -1 0
2408 1 1.5817328275008193 1.0225492399820257 11.560524987185868 0 0 0
2805 1 1.4652385920615811 16.314478580750876 12.088202790249282 0 -1 0
2806 1 2.3160700435255315 0.1833430574093784 11.924026802506587 0 0 0
2411 1 4.791201231925022 16.678366815472106 11.346649706684419 0 -1 0
2412 1 3.4534765256907836 1.0467108002723635 11.067707748873332 0 0 0
2809 1 3.5845267406311274 0.027308934751534106 11.508057635929203 0 0 0
2810 1 4.425850818567988 0.8045545412396403 11.703193043927316 0 0 0
2415 1 5.52617541518809 0.39915390039345977 10.68766669017535 0 0 0
2416 1 4.716512412526457 0.9999502688078703 10.704619873074101 0 0 0
2813 1 5.747094512780084 16.733244600296977 12.863315573439413 0 -1 0
2814 1 5.579259313643494 0.9045611418035164 11.596615750820716 0 0 0
2419 1 7.744493477396023 0.4848193384956337 11.246223329526988 0 0 0
2420 1 6.808916040699885 1.1216360164810744 10.750006281559097 0 0 0
2817 1 6.400634968067761 0.13150586016911295 11.424341449419263 0 0 0
2818 1 8.266399477687935 1.2327314881522882 10.697182037779182 0 0 0
2424 1 9.147473792757259 1.3145554228499183 11.34841716136641 0 0 0
2821 1 8.175485361382753 0.05490066452265686 12.141659315210992 0 0 0
2423 1 8.770907517997456 0.23688575228802067 11.33343498738046 0 0 0
2428 1 10.186111473282915 0.7213038554800388 10.587525284673156 0 0 0
2822 1 9.470613197834455 0.5195246671623867 12.419048012735269 0 0 0
2825 1 10.203137020185734 0.27045442715273116 11.730547561489708 0 0 0
2427 1 10.743303248366947 16.316856812131103 10.66377752097873 0 -1 0
2432 1 11.851991500944333 1.3966790761333452 10.129694008542359 0 0 0
2826 1 10.966946255345006 0.9336881243465929 11.319766267062283 0 0 0
2829 1 12.095199741238044 0.5209508044141284 10.718650747659629 0 0 0
2431 1 12.935607259431752 16.744588636078408 10.37484569631591 0 -1 0
2436 1 13.66159459255361 0.09809822710416394 12.503572254790106 0 0 0
2830 1 12.919215593543592 0.9585382912659283 11.252783418262899 0 0 0
2833 1 14.559330047023913 16.346346037326775 13.147807222089785 0 -1 0
2435 1 14.818194891862884 0.25107602140056134 11.915796675743199 0 0 0
2440 1 14.502571203241361 0.8658577321041371 11.19892721553161 0 0 0
2834 1 14.034570670356416 1.051669490134789 12.111615421333248 0 0 0
2837 1 15.45528155051341 15.779322356254688 12.6764955789359 0 -1 0
2439 1 15.438575654202483 0.42084784207661413 11.041635355333215 0 0 0
2838 1 15.63950328480488 0.9527547170081764 12.189582071537254 0 0 0
2443 1 0.5420902057759361 1.8217006409288348 11.571612521415434 0 0 0
2444 1 0.03456766366552059 2.427636117733619 10.959226272990293 0 0 0
2841 1 0.029628938980595716 1.8644741514038627 12.492451278972217 0 0 0
2842 1 0.8026072474987554 2.6534303862010717 12.172925533369922 0 0 0
2447 1 2.465351973880117 1.3696164249334464 11.053187788440185 0 0 0
2448 1 2.1532399284385395 2.615383838242134 11.003537393300697 0 0 0
2845 1 1.70238130134811 2.0520521853017724 12.061649575665067 0 0 0
2846 1 2.752970934367437 2.3829669886321496 11.846982629454935 0 0 0
2451 1 4.162834592261931 1.8340212983061832 11.002352156472835 0 0 0
2452 1 3.145187371530365 2.1688971372299624 10.926852102334884 0 0 0
2849 1 3.653899255428965 1.759621745272747 11.924272089988296 0 0 0
2850 1 4.677181697486569 2.80162931426179 11.699352180977852 0 0 0
2455 1 5.829927214637851 2.093835369585516 10.731114683572034 0 0 0
2456 1 5.325302227408948 3.0499078500924477 10.747523426494737 0 0 0
2853 1 5.101607411285476 1.8223377658210114 11.75976721039881 0 0 0
2854 1 5.830966522357688 2.680991304471906 11.5746309075762 0 0 0
2459 1 7.3406599657814855 2.227687215280556 10.400817038474159 0 0 0
2460 1 6.4027477033750415 3.0584105193050934 10.621212494994502 0 0 0
2857 1 6.597448219948649 1.7308842619655724 11.660769114252501 0 0 0
2858 1 7.419433693315728 2.4975256834477326 11.916274122943243 0 0 0
2464 1 8.099550258310359 2.537883693337433 11.136887359746334 0 0 0
2861 1 7.928303121456834 1.5640629198938671 11.69032411835138 0 0 0
2463 1 9.670765749917633 2.2458423367450506 10.840633468701768 0 0 0
2468 1 10.134981933812533 2.6944247039664875 9.991910786234884 0 0 0
2862 1 9.71800737282011 3.5896975759130223 11.888417863686103 0 0 0
2865 1 10.104342669692063 1.5734393413028125 11.534131451022002 0 0 0
2467 1 10.675897328928762 1.859610270276506 10.369363141971421 0 0 0
2472 1 11.87390888868167 2.6327032533178074 10.240938366601487 0 0 0
2866 1 10.643368623871709 2.5630312349676134 11.239642198900151 0 0 0
2869 1 11.650324999651671 2.2220046012186807 11.437576052094842 0 0 0
2471 1 12.465379244122992 1.964089282833043 10.947432917384347 0 0 0
2476 1 13.060759471133935 2.7426333863129497 10.849240821338965 0 0 0
2870 1 12.65746880892236 2.74003007963478 11.77584724785209 0 0 0
2873 1 13.499448216859628 2.1518590045011754 11.761852922005987 0 0 0
2475 1 13.371605998521666 1.8612805614064993 10.597496545723638 0 0 0
2480 1 14.425943456348726 1.810030184526255 10.629042877034648 0 0 0
2874 1 14.02730978767698 3.024907098737384 11.642677198476148 0 0 0
2877 1 14.458503269762211 2.018105787242352 11.669631579504129 0 0 0
2479 1 15.586760783102305 1.5714873146603288 10.891366317758902 0 0 0
2878 1 15.74052874665491 2.0038622880573262 11.848301256716981 0 0 0
2483 1 1.0738088290597234 2.9046676838104433 11.129948046915537 0 0 0
2484 1 16.76911255801878 4.005044762800434 11.048089231444315 -1 0 0
2881 1 16.44854127979862 2.8027891598329155 12.034157135415112 -1 0 0
2882 1 0.6109340643042908 3.6277085466784036 11.901549596958205 0 0 0
2487 1 2.9157012489089693 3.2738769784953767 11.343460019707413 0 0 0
2488 1 1.7520837245685987 3.987297782984734 11.165533359050336 0 0 0
2885 1 1.7811710995307237 3.1322664351157616 11.986895179804902 0 0 0
2886 1 2.526700387433581 4.239447301818661 12.09715307570786 0 0 0
2491 1 3.8882188290131325 2.8862229130983503 11.028008144658934 0 0 0
2492 1 2.669475220306783 3.091168459166845 10.217708312243708 0 0 0
2889 1 3.756786503004189 3.2737305191562505 12.087031827412506 0 0 0
2890 1 3.6233133753087863 4.088859396856657 11.382414078900482 0 0 0
2495 1 5.00929357698953 3.968156087280688 10.249157120327189 0 0 0
2496 1 4.509114033995273 3.0694976436139845 9.860110343746177 0 0 0
2893 1 4.537429412516905 3.812286201871897 11.129005290494684 0 0 0
2894 1 5.7792405617913865 3.9401572952315402 11.101182444152078 0 0 0
2499 1 7.397559397134104 3.3986266280488646 11.183809648447168 0 0 0
2500 1 6.715955592349168 4.236987408296022 10.81298292081088 0 0 0
2897 1 6.559944368738633 3.6473996971681535 11.650284966763278 0 0 0
2898 1 7.557692439244737 4.114018680822102 12.192621044751997 0 0 0
2504 1 8.115350845872063 4.443907766349725 11.085491137925187 0 0 0
2901 1 8.244789555793208 3.1643162040379607 12.017112148502438 0 0 0
2503 1 8.70104901132446 3.44575105344389 11.188082778766798 0 0 0
2508 1 9.603090457731147 4.338245850852437 10.35468245838192 0 0 0
2902 1 9.110771402897663 4.366112950782418 11.43437844560372 0 0 0
2905 1 9.927256875852322 3.3407382499242617 10.921452329714175 0 0 0
2507 1 11.070344703300723 3.047290104159375 9.602505682899693 0 0 0
2512 1 11.750986373823139 4.262559879450905 10.600674309789545 0 0 0
2906 1 10.870029346651494 3.919590662600207 11.532786904209924 0 0 0
2909 1 11.170269822739682 3.3156476212455335 10.684028545427772 0 0 0
2511 1 12.412305593193278 3.531294170481045 10.385673029403625 0 0 0
2516 1 13.305645505868029 3.852159709538707 10.948589712084587 0 0 0
2910 1 12.243768547259771 3.783082756506358 11.415593177902636 0 0 0
2913 1 13.329135660633511 3.4990875578491436 12.188612844598703 0 0 0
2515 1 14.329789634460047 3.691664758853901 10.793513389527382 0 0 0
2520 1 15.139520156879332 3.8815792521032795 11.403572528737527 0 0 0
2914 1 14.372564942198512 4.037124966715546 11.94606263453315 0 0 0
2917 1 15.176226057125287 2.92640712281111 11.791413738400163 0 0 0
2519 1 16.003394673822335 3.2391449674909896 11.216888640555194 0 0 0
2918 1 16.069147716596845 4.157195777312679 11.863700628961276 0 0 0
2523 1 1.0587992315737598 4.769674170411993 11.206367432038384 0 0 0
2524 1 0.04272122656467205 5.836443537766321 10.614759164928067 0 0 0
2921 1 0.1560053839526022 4.671043487243008 11.956400174691513 0 0 0
2922 1 0.5169380665023945 5.527817669636133 11.740097028007074 0 0 0
2527 1 2.104275091015583 4.996742900328867 11.492709159435412 0 0 0
2528 1 2.5112432957506563 5.908498998874246 10.737883925562345 0 0 0
2925 1 1.126122066204727 4.512118044762055 12.348688448116665 0 0 0
2926 1 2.362677426054307 6.027245259490387 11.799974406875144 0 0 0
2531 1 4.056696444054798 5.742508245496427 10.181710335312859 0 0 0
2532 1 3.4694466663859065 6.096382142323909 11.247663551631726 0 0 0
2929 1 4.127784463064848 5.0986688641448765 11.608437423706931 0 0 0
2930 1 4.160881968822655 4.620567140327501 10.616835591962612 0 0 0
2535 1 5.792453823570869 4.773115016870486 10.475877768013685 0 0 0
2536 1 3.1643888376570817 6.2382003078387624 9.91358502654446 0 0 0
2933 1 5.300683777960012 4.804957363389033 11.567511512957083 0 0 0
2934 1 5.62058248186231 5.696692147514338 11.81866931561888 0 0 0
2539 1 7.199214433305265 5.210765320793394 11.237476343451055 0 0 0
2540 1 6.222757641919505 5.752579695120239 10.893366708342867 0 0 0
2937 1 6.425117527985748 4.695926434293328 11.88588016047265 0 0 0
2938 1 7.528348123659641 5.978836365334053 11.75395823067393 0 0 0
2544 1 8.186793905678478 5.968578374602343 10.86424489517566 0 0 0
2941 1 8.284673178125148 5.2563549063682915 11.709064992713376 0 0 0
2543 1 9.336311532067661 5.293767890366059 10.828313465890925 0 0 0
2548 1 10.298968616836508 5.141143480184328 10.283142464935 0 0 0
2942 1 10.204237071159097 5.725918097992584 11.141136849069978 0 0 0
2945 1 10.107948480742435 4.620457206473642 11.28716480599082 0 0 0
2547 1 11.218220067422223 5.143730249510198 11.153361968059317 0 0 0
2552 1 12.099009399063998 5.915537352775871 11.370188038085416 0 0 0
2946 1 10.946391071810545 5.853266328848461 12.233445326450758 0 0 0
2949 1 11.943842544971718 4.952472136776409 11.958249125206033 0 0 0
2551 1 12.471183669908815 4.9766665692516945 10.989403898062603 0 0 0
2556 1 13.314139933332243 5.747771088138206 11.420325374339845 0 0 0
2950 1 12.789953407513059 5.502321235669084 12.259893642360574 0 0 0
2953 1 13.348105460123966 4.548729744475695 11.663701111996092 0 0 0
2555 1 14.553146535738975 5.708935079548348 11.54673467596336 0 0 0
2560 1 14.416740992034923 7.328994988007825 10.621840890601405 0 0 0
2954 1 13.839408471582457 5.307527624731367 12.200839026310032 0 0 0
2957 1 15.41218654069705 4.950671761911529 11.465369382321803 0 0 0
2559 1 16.53635820180508 5.006169945741459 11.15911954240883 0 0 0
2958 1 15.900713548217254 5.938957571529709 11.486200216151184 0 0 0
2563 1 1.1680069697010882 5.68554572843992 10.784380508309306 0 0 0
2564 1 0.3270516439013458 7.5542428196077065 11.016143950336803 0 0 0
2961 1 16.285168918581093 6.774752920030721 11.00328468743886 -1 0 0
2962 1 0.599293548571286 6.513986092748391 11.577329593531493 0 0 0
2567 1 2.7593240744766194 6.908540075282941 10.869891576998178 0 0 0
2568 1 1.6327756085832306 8.730140751845394 11.567109330377587 0 0 0
2965 1 1.6772337087435223 6.857730421710531 11.10279199624413 0 0 0
2966 1 2.6064747355981357 8.040581272161068 11.405155847192551 0 0 0
2571 1 2.975789399996796 7.288902538300325 9.529274313388992 0 0 0
2572 1 3.3195437448523375 7.738256569592672 10.365033228892676 0 0 0
2969 1 3.5744757868217256 7.838442269869116 11.710911438034513 0 0 0
2970 1 4.113842413120535 7.0488506196178475 10.88406259790482 0 0 0
2575 1 5.727632662599867 6.757758701815572 11.15165070263932 0 0 0
2576 1 4.876105487758144 7.591167638373902 10.545345209069003 0 0 0
2973 1 4.992440033025744 5.60593439950913 10.727346109595901 0 0 0
2974 1 6.036852861822458 7.562129900299805 12.039130178138622 0 0 0
2579 1 7.276075361970595 6.434925215193227 10.657116982217419 0 0 0
2580 1 6.560419265928876 7.271101672072074 10.801901134429924 0 0 0
2977 1 6.843110410474161 6.7469399724832355 11.642655695245848 0 0 0
2978 1 6.885020023109989 8.118240012023314 11.893118747523792 0 0 0
2584 1 7.606861920704396 7.393133025986289 11.135818824810732 0 0 0
2981 1 8.349893294313794 6.592605470467281 11.772097421182515 0 0 0
2583 1 9.160514847273788 6.159125250948184 11.17893594164466 0 0 0
2588 1 9.737163785676136 7.624288771401177 10.863121352813721 0 0 0
2982 1 9.071731071722322 7.256682491561141 11.782954622221274 0 0 0
2985 1 10.05895105285519 6.8246452082880245 11.53151435576068 0 0 0
2587 1 11.094996204133672 6.423409211257665 11.438879086225619 0 0 0
2592 1 11.695745312733724 7.3412157519513315 11.29750706808629 0 0 0
2986 1 10.725643967349553 7.544880478557551 11.68520326993351 0 0 0
2989 1 12.081573070393262 6.720614595270566 11.99557941462022 0 0 0
2591 1 12.879345330834397 6.837311696805616 11.106632693766956 0 0 0
2596 1 13.384673621949384 7.740856250947916 10.849290227189151 0 0 0
2990 1 13.18218789560376 7.630569434947078 11.962814870751794 0 0 0
2993 1 13.14313533649398 6.5839992588608105 12.13220256812093 0 0 0
2595 1 13.886255245721388 6.670769117366159 11.420836489573585 0 0 0
2600 1 15.00729439693381 8.189377248200103 10.351462800081148 0 0 0
2994 1 14.249179430043766 7.5240705870767295 11.841827771959757 0 0 0
2997 1 15.202817220016943 6.922869709508839 12.189868146823306 0 0 0
2599 1 15.070665336642557 6.653543572111811 11.14227445520794 0 0 0
2998 1 15.897607645428108 7.63623383267374 11.589156200778296 0 0 0
2603 1 1.139128547171519 8.82048742126092 10.39915649717383 0 0 0
3001 1 16.568947771947663 8.584618292566478 11.333836422237885 -1 0 0
2607 1 3.142173120335257 8.853620470344374 11.767736888291749 0 0 0
3005 1 0.7076931695643515 8.269807044369756 11.722815223721497 0 0 0
2611 1 4.267067661577514 8.220225986152123 10.91343489823119 0 0 0
3009 1 4.356678226749166 7.9836858632680725 12.39490615721509 0 0 0
2615 1 5.752551861388863 7.925000079055974 11.085937494262849 0 0 0
3013 1 5.272877676217339 8.443439231814446 12.036938126388026 0 0 0
2619 1 7.4374640144553945 8.568118352417168 10.742328183410649 0 0 0
3017 1 6.222030486939199 8.801149508595028 11.549176336775675 0 0 0
3021 1 8.195291498286243 7.902567077661946 11.749246354211348 0 0 0
2623 1 8.6806660938662 8.235396909653812 10.90388958120137 0 0 0
3025 1 9.65952302452453 8.347544408018804 11.54939764932638 0 0 0
2627 1 10.953970521825081 8.474558976273507 11.212006664384843 0 0 0
3029 1 11.941037696398723 8.331495664176844 11.622583280694759 0 0 0
2631 1 12.79934333413134 8.54766567330892 10.560277029720991 0 0 0
3033 1 13.449344053400582 8.646298041348238 11.68385022410341 0 0 0
2635 1 14.164252408110146 8.813592050585422 10.954961737189436 0 0 0
3037 1 14.980839479321823 8.270636468489576 11.482515708289725 0 0 0
2639 1 15.642477105016772 8.823627340552871 10.747111856969733 0 0 0
2604 1 0.07875015565564186 9.320482192811408 10.716476613757226 0 0 0
2643 1 1.4944336452636335 9.981419743536755 11.237369296260214 0 0 0
3002 1 0.7742863465656209 9.36461809744058 11.515589174164058 0 0 0
3041 1 16.672609500301228 9.594161602823462 11.916534580338224 -1 0 0
2608 1 2.301213886403721 8.974661322735857 10.718338919019054 0 0 0
2647 1 2.6138558546057014 10.215218432821146 10.820455273234662 0 0 0
3006 1 2.3319914869075036 9.600157688298314 11.854111685392063 0 0 0
3045 1 1.8318113158407687 10.76939743199306 12.616160762175449 0 0 0
2612 1 3.3134656641664124 8.887604301864489 10.628519765586747 0 0 0
2651 1 4.484197591476931 10.234357266408926 11.2226547978977 0 0 0
3010 1 4.092471640311231 9.14704288856191 11.811131861109043 0 0 0
3049 1 3.48594171741158 9.788881286852604 11.320050127737323 0 0 0
2616 1 5.30499917998193 9.254367660155761 11.337375014020955 0 0 0
2655 1 5.438187581913406 10.369414182730873 10.752255068034627 0 0 0
3014 1 6.052299046522274 9.777137941936322 11.956234935917594 0 0 0
3053 1 5.244017202227527 10.666406343185377 11.93118185969651 0 0 0
2620 1 6.236586637565175 9.281681213406015 10.578755152499284 0 0 0
2659 1 7.833768206231773 9.952367280138576 10.777398662903366 0 0 0
3018 1 7.125837562511636 9.426950644968016 11.465498336366862 0 0 0
3057 1 6.6032084912108155 10.279378916539262 11.150482164390574 0 0 0
2624 1 8.117770297880758 9.19638799297482 11.735281101222117 0 0 0
3061 1 8.571442717187212 10.140649139788442 11.768804789635338 0 0 0
2628 1 10.221006658200274 9.36509797444091 11.211285761992796 0 0 0
2663 1 9.693944072134341 10.068014689038181 11.870912821067261 0 0 0
3022 1 9.123140079967875 9.361484557797807 12.52652335250446 0 0 0
3065 1 10.161578251735651 10.705900283299155 12.515668524112979 0 0 0
2632 1 12.084470599076 9.446378120607768 10.590030825629222 0 0 0
2667 1 10.658889468410301 10.277298635574326 11.567077902262422 0 0 0
3026 1 11.303747610690461 9.44867145485598 11.583583178807125 0 0 0
3069 1 11.821615157934621 10.234488709910421 11.956678636221397 0 0 0
2636 1 13.378888269051016 9.499096132974218 10.497994237374858 0 0 0
2671 1 12.616814823861752 10.3467645181643 10.81279357823448 0 0 0
3030 1 12.473179932952853 9.366689731034311 11.593887680901972 0 0 0
3073 1 13.47617348004567 9.811138112067823 11.631522225436948 0 0 0
2640 1 14.93828473004646 9.741168939345652 10.848715700312104 0 0 0
2675 1 13.983297769378872 10.500919991182707 10.55074042357884 0 0 0
3034 1 14.483235511893024 9.18293730566603 11.916206527822087 0 0 0
3077 1 14.939195923572232 10.237455979501647 11.901116958486446 0 0 0
2679 1 15.832384865819268 10.154601828594846 11.209849012941843 0 0 0
3038 1 15.632441318065428 9.105410445763958 11.882269658924477 0 0 0
2644 1 0.1682322497954147 10.334376694458516 11.273972746727791 0 0 0
2683 1 1.0554884687942445 11.914494929234586 11.000341178131555 0 0 0
3042 1 0.2529071025892141 11.584972137879683 11.592478413403743 0 0 0
3081 1 16.162891165001614 12.331190072026656 11.91032606614262 -1 0 0
2648 1 1.083844407601835 11.009880753294892 11.615242610290698 0 0 0
2687 1 2.1325292796883746 10.941782099114183 11.400442226354803 0 0 0
3046 1 2.9424758632589794 10.507024689400037 11.955183840764228 0 0 0
3085 1 0.9622298396902966 11.207912463894505 13.034634718191056 0 0 0
2652 1 3.8069331099317565 10.858207562494123 10.80707340862513 0 0 0
2691 1 4.090173085900167 12.190247685704678 11.022955655043216 0 0 0
3050 1 4.362531964035562 11.303276309050712 11.743000909597226 0 0 0
3089 1 3.118135240516076 11.579393750956907 11.869884890824158 0 0 0
2656 1 4.8133223544539785 11.236691889057955 10.5098203457713 0 0 0
2695 1 5.08893843854638 12.591726844331037 11.17269785295843 0 0 0
3054 1 6.234372721672196 11.12662425685281 11.941437395868487 0 0 0
3093 1 5.347299023436207 11.670575222725134 11.611835708492972 0 0 0
2660 1 6.35501069812757 10.21038051126252 10.125585710144485 0 0 0
2699 1 7.654304032571716 11.883744894985549 11.03209101593708 0 0 0
3058 1 7.561817457686686 10.785737808836311 11.541096553847561 0 0 0
3097 1 7.240463067798607 10.861841331252764 10.467086891615315 0 0 0
2664 1 8.426518811050043 11.048768870084352 10.813419352149339 0 0 0
3101 1 8.599945179502134 12.014050299638589 11.558538991657805 0 0 0
2668 1 10.338907139490564 11.179064691168648 11.16893864579224 0 0 0
2703 1 9.501291811249676 11.900365707741411 11.005186030023717 0 0 0
3062 1 9.333059278914885 11.229751412592446 11.836740829999627 0 0 0
3105 1 10.011799959336145 11.902142070605501 12.216253213056635 0 0 0
2672 1 11.49516415505537 11.59969432723391 10.988291070782697 0 0 0
2707 1 10.571236048521971 12.191703550822917 11.46082222711831 0 0 0
3066 1 11.100638969778668 11.291946756791383 11.902853232433992 0 0 0
3109 1 11.60144207646341 12.181223949955037 12.017150606400987 0 0 0
2676 1 13.127019577133066 11.114536207636633 11.206858078201066 0 0 0
2711 1 12.429086418813235 11.90626159822987 10.966828807711675 0 0 0
3070 1 12.215271522697009 11.292325763861967 11.827994829673354 0 0 0
3113 1 13.587655763198297 11.890207229020346 11.82987838574424 0 0 0
2680 1 14.972430877526763 10.81243636254053 10.971522988986925 0 0 0
2715 1 14.115244434749913 11.742605392579662 10.719044694252554 0 0 0
3074 1 14.09239416824684 10.68944117413698 11.539884014649063 0 0 0
3117 1 14.667476854052376 11.717823077091976 11.598246108781396 0 0 0
2719 1 16.350640741825497 11.12442492856452 10.796827255784128 0 0 0
3078 1 15.934737438264689 10.866104343631685 11.907699686958466 0 0 0
2684 1 0.25362695384336525 12.52266149050027 10.773629493200115 0 0 0
2723 1 16.658323526315524 13.465118158353555 11.339791602792284 -1 0 0
3082 1 0.45366236293676937 12.606038256633015 11.832894476679702 0 0 0
3121 1 0.920671059759511 13.474671680171456 12.525111813526694 0 0 0
2688 1 2.095082458701578 12.080698863581087 11.516700084344619 0 0 0
2727 1 2.0858710613067455 13.692280168765137 11.41975332139102 0 0 0
3086 1 1.9920859354240399 13.411688805120235 12.627853272438518 0 0 0
3125 1 1.3894418961629298 12.951890597924478 11.241205437797406 0 0 0
2692 1 3.02988259610927 12.791826599200872 10.920395687410684 0 0 0
2731 1 3.8564591363487195 14.007275023600563 11.100829985840033 0 0 0
3090 1 3.529321672550507 12.537481753365574 11.87360087147626 0 0 0
3129 1 2.8917843326313184 13.375917386399133 12.025343277115699 0 0 0
2696 1 4.572039447540986 12.323741403556841 12.00619540472486 0 0 0
2735 1 5.599874193831622 13.637161316161828 11.198787993637122 0 0 0
3094 1 5.943600620558239 12.756840332786906 11.807546063847454 0 0 0
3133 1 4.5453342738260725 13.32091749391275 11.65319868065013 0 0 0
2700 1 5.990442498184325 12.82859788233369 10.576876934564888 0 0 0
2739 1 6.763368077910273 13.50492745570201 10.607468558236441 0 0 0
3098 1 7.225150970698686 12.769125164791898 11.567528039367248 0 0 0
3137 1 6.589553144138355 13.608154594822102 11.596932616910935 0 0 0
2704 1 8.911427387074 13.410999926587973 11.044940313169054 0 0 0
3141 1 7.944904071960754 13.851019674664995 11.291187072303861 0 0 0
2708 1 10.006710477538308 13.217042868050939 10.922088859989474 0 0 0
2743 1 10.067113306906789 14.320619436543433 11.607666034810258 0 0 0
3102 1 9.442951755294915 12.682310482034783 11.624050196180717 0 0 0
3145 1 10.973368799067188 13.869739592273637 12.067770056432966 0 0 0
2712 1 11.43336713100911 12.856620887881252 11.212501942571636 0 0 0
2747 1 11.123403604051434 14.064788220094776 11.092590304726949 0 0 0
3106 1 10.327435423032833 12.989623402275505 12.184864194087435 0 0 0
3149 1 12.079553758983213 13.757202217069432 11.759787623330846 0 0 0
2716 1 13.427685179025413 12.515063268352836 10.968850742317338 0 0 0
2751 1 13.163587435367988 13.802678767029146 11.31817277016097 0 0 0
3110 1 12.690990918810817 12.751224252161697 11.839797068152897 0 0 0
3153 1 13.391978718822278 13.350422345849227 12.17346171858015 0 0 0
2720 1 15.685080803032617 11.76223632415039 11.22058314823991 0 0 0
2755 1 14.149724871587637 13.352872354200503 11.460907239819868 0 0 0
3114 1 14.706531243286689 12.708486785961208 10.879345720236564 0 0 0
3157 1 14.804996548236076 13.570493062565763 12.579877109597788 0 0 0
2759 1 15.767147709799005 12.990172181493362 10.950305625523633 0 0 0
3118 1 15.065133350859119 12.580247919212573 12.019268215478329 0 0 0
2724 1 0.15974296591965226 14.372031913448424 10.306091827652029 0 0 0
2763 1 0.8730791709151888 14.836407301673432 10.918869737500502 0 0 0
3122 1 0.1868438364485596 14.452908009639541 11.558539057473965 0 0 0
3161 1 15.995207468980968 14.590927739680847 11.526088044651901 -1 0 0
2728 1 0.7063385350282989 13.571164097131625 10.752323567349949 0 0 0
2767 1 2.1747209933256695 15.843673397819574 10.454072604075183 0 0 0
3126 1 2.2481232892096807 14.507118730957158 12.363038871359924 0 0 0
3165 1 1.2903270728357716 14.32580230220476 11.818512776084429 0 0 0
2732 1 2.978866476587622 14.765373898780657 11.377064866767608 0 0 0
2771 1 3.248226980731997 15.528734131481077 8.99808471409451 0 0 0
3130 1 3.9715086020477797 14.939188408410109 11.693250949926874 0 0 0
3169 1 2.96864265203801 15.319662487524438 12.405723978744769 0 0 0
2736 1 4.664908733406599 13.52026411496191 10.524157996835577 0 0 0
2775 1 6.496242163124088 15.19294216383109 8.985749874407784 0 0 0
3134 1 4.8561849319964345 14.342230244590962 11.181920329294801 0 0 0
3173 1 3.702863875556876 15.929038353319541 11.970009445958985 0 0 0
2740 1 5.504067999917153 15.246853615326215 11.080502246165722 0 0 0
2779 1 7.049515816837063 16.077280163318413 11.247605238295609 0 0 0
3138 1 5.704232681199586 16.224283193278186 11.875050806547076 0 0 0
3177 1 4.521935697201614 15.912289296803618 10.874413955577559 0 0 0
2744 1 8.184883772057935 14.393106444216725 10.370224232522041 0 0 0
3181 1 8.146535280814664 15.008010378094212 11.623762594356041 0 0 0
2748 1 10.498074813897654 14.823667826516083 10.694840815237825 0 0 0
2783 1 8.961355194034013 14.49766173759232 11.324286510181551 0 0 0
3142 1 9.41590079175656 13.667709450746065 12.127816989280207 0 0 0
3185 1 9.87375597740684 15.414651888638511 11.264870285461432 0 0 0
2752 1 12.351526013961239 14.936781338709624 10.143541743135327 0 0 0
2787 1 11.36514539596846 15.393045176309348 10.813445724325321 0 0 0
3146 1 11.134038426884665 14.97700754849645 11.807752986698668 0 0 0
3189 1 11.981908213387308 15.701330077609168 11.625031947901247 0 0 0
2756 1 14.002471956135075 14.52834778018316 11.171024828893081 0 0 0
2791 1 12.885886667936017 15.424752754932404 11.058245843586059 0 0 0
3150 1 12.147492133230473 14.73692987562036 11.311692405980168 0 0 0
3193 1 14.085118577019651 14.245612975048193 12.12080612294879 0 0 0
2760 1 15.011250076655706 14.040419206652187 11.362967386414043 0 0 0
2795 1 14.578427382444353 15.366518260292544 11.1462138100462 0 0 0
3154 1 15.119509178071526 15.002666303838822 11.93010069208929 0 0 0
3197 1 15.219673435559297 14.45249986807397 12.950243888928485 0 0 0
2799 1 15.59202679625236 15.220670672551995 10.616393619325267 0 0 0
3158 1 16.63385564406245 13.751522573755766 12.26499450254485 0 0 0
2764 1 16.68181591668747 15.307800014535271 10.914428962685545 -1 0 0
3162 1 16.06478184202274 16.394673293882267 10.655427004254172 -1 0 0
2768 1 1.074076427418027 15.858196367875422 10.899251202695373 0 0 0
3166 1 1.851859995630229 15.30184213791399 11.730071535168731 0 0 0
2772 1 4.1471656790823115 16.100061910851995 9.620298570553741 0 0 0
3170 1 4.806055776119851 15.55241457642953 11.857477860185 0 0 0
2776 1 5.851150140112893 16.180871988836895 10.647434236023447 0 0 0
3174 1 5.57746379904945 14.913835542733208 12.30349160322015 0 0 0
2780 1 6.389758686281929 15.330768812804232 10.02080618587469 0 0 0
3178 1 7.057768171975303 16.584962630284927 12.086704472642044 0 0 0
2784 1 8.937850666977626 15.454522550869186 10.876733693551973 0 0 0
2788 1 9.651032590760892 16.635513233010247 10.829850953774585 0 0 0
3182 1 9.39527969020516 16.164924224693763 11.819422060468085 0 0 0
2792 1 11.994938204040317 16.13358578991129 10.535595399550216 0 0 0
3186 1 11.555583677426384 16.729085994761647 11.380282448785128 0 0 0
2796 1 13.739323805620801 15.964008169191882 10.900467925067174 0 0 0
3190 1 12.89342817836475 16.423525510103715 11.422015819020903 0 0 0
2800 1 14.873481982904625 16.42794509736383 10.601695679636485 0 0 0
3194 1 14.205438917936497 16.203170977451123 11.990427128959176 0 0 0
3198 1 15.435041140558482 16.013425675033453 11.549831335672753 0 0 0
2803 1 0.6027228719993422 0.555027449697665 11.813122610375805 0 0 0
2804 1 16.560681037235085 0.7067060173604331 12.52899371484533 -1 0 0
3201 1 16.73876920303524 16.64188923621333 14.180334449352141 -1 -1 0
3202 1 0.6257956825343708 0.7007042925110334 13.507150594979938 0 0 0
2807 1 2.27000548902507 16.511470483544326 12.954800500043225 0 -1 0
2808 1 1.4785014604507178 0.569691974402853 12.905552822266893 0 0 0
3205 1 1.6501179356669822 16.791845363031356 13.735438434107005 0 -1 0
3206 1 2.52821881774789 0.7867545707336701 13.042873233547432 0 0 0
2811 1 4.324207412141374 16.769569091988725 12.319841705150775 0 -1 0
2812 1 3.3662235025721077 0.5917498282941844 12.416240764599504 0 0 0
3209 1 3.482066502143567 0.37797512646494597 13.436420422119996 0 0 0
3210 1 4.289766675516839 0.9701076822867114 13.400962854594047 0 0 0
2815 1 6.312264796875195 15.856123290995487 12.740522154426147 0 -1 0
2816 1 5.012907505348125 0.7665570325639793 12.644865280105495 0 0 0
3213 1 4.887308039114656 0.0915704470935664 13.483697599323934 0 0 0
3214 1 5.801674837289437 0.8693196504246109 13.387442149865985 0 0 0
2819 1 7.384596216026124 0.8198529703601215 12.192260882187474 0 0 0
2820 1 6.356677947067543 0.6890818037947428 12.386947083488376 0 0 0
3217 1 6.7813624137647945 0.23258451731014135 13.226022907709178 0 0 0
3218 1 7.635137318170798 0.823450806842785 13.31008365042626 0 0 0
2824 1 8.575226096466745 1.1164889244796554 12.530006826682635 0 0 0
3221 1 8.524732527740186 0.2975012117121892 13.233518697008249 0 0 0
2823 1 8.729374695192062 16.192984371803334 12.70782954488664 0 -1 0
2828 1 9.411338498052155 1.7675236682987774 12.488608545747871 0 0 0
3222 1 9.315227323701869 1.0230160257805014 13.437125633803277 0 0 0
3225 1 10.298987039757268 15.97154281258944 13.728311698813464 0 -1 0
2827 1 11.197626543242702 0.12866032102106598 12.426591776323054 0 0 0
2832 1 11.786845714713541 1.0479487362308253 12.144140435731797 0 0 0
3226 1 10.45913279601166 0.5876134651023196 13.371632771478232 0 0 0
3229 1 11.351233185871648 0.7969821598605633 13.119774523770289 0 0 0
2831 1 12.737039426511213 0.5118474023019668 12.106038320901188 0 0 0
2836 1 13.123731380383637 1.4361269844178124 12.504865154356526 0 0 0
3230 1 12.230076820778336 1.3466223532481014 13.090654518108384 0 0 0
3233 1 12.99067179968701 1.148316040336531 13.794362330803462 0 0 0
2835 1 14.256089199632864 15.31531083451008 12.503103465266525 0 -1 0
2840 1 14.901614907006678 1.2893881295122172 12.960599408648761 0 0 0
3234 1 13.84870773070553 0.8402071087123008 13.287964703630289 0 0 0
3237 1 15.39482179024851 0.201130658371168 12.807190512588262 0 0 0
2839 1 16.282041466976995 16.451218606116946 12.821845544885251 0 -1 0
3238 1 16.20149627546214 0.5601639196034379 13.513288614643622 0 0 0
2843 1 1.0024414241337376 1.3946193147072514 12.439518255704852 0 0 0
2844 1 0.19577242885466672 2.702917472466053 13.055891013035884 0 0 0
3241 1 16.733460151550815 1.5037561988436328 13.617659233778724 -1 0 0
3242 1 0.9733240854722347 3.0934366750000377 13.92808184137074 0 0 0
2847 1 2.566522046410668 1.4437359239655978 12.17454789071261 0 0 0
2848 1 1.4202125090697588 2.6280680399086247 13.066866170673938 0 0 0
3245 1 1.7677205067963624 1.5534602362394374 12.989461888233002 0 0 0
3246 1 2.6057563391227965 2.194813412320592 13.164981282724645 0 0 0
2851 1 4.489599975865728 1.9083292313173472 12.52488943901038 0 0 0
2852 1 3.603027371544377 2.512534112843191 12.79950364923266 0 0 0
3249 1 3.4210539196021723 1.446253292600251 13.02717803135789 0 0 0
3250 1 4.491038025507645 2.647071720622071 13.333589363171642 0 0 0
2855 1 5.744010514051368 1.5917205722516758 12.621323216105525 0 0 0
2856 1 5.321946474489158 2.5948227171398046 12.584773746377355 0 0 0
3253 1 5.133590005347969 1.7374739890116973 13.377711213401202 0 0 0
3254 1 6.004153365802023 2.492501271919908 13.408096823462595 0 0 0
2859 1 7.517581036806811 1.7582277984786732 12.660861232624008 0 0 0
2860 1 6.481021361336988 2.4976577178711987 12.400681961908289 0 0 0
3257 1 6.596308272857011 1.6996600574341023 13.340506744223687 0 0 0
3258 1 7.467760638517029 2.482329571979326 13.39831406092499 0 0 0
2864 1 8.469937440049149 2.2897036788468497 12.6887968578704 0 0 0
3261 1 8.461151113437518 1.7364687415868398 13.594544478529993 0 0 0
2863 1 9.021976143069958 2.520756272518296 11.667691682702584 0 0 0
2868 1 10.142238335545084 2.6490684644210294 12.455406882603702 0 0 0
3262 1 9.518037552633295 2.4708294646687277 13.77117976484191 0 0 0
3265 1 10.26137979281242 1.6106311114570169 13.349700061619545 0 0 0
2867 1 10.500113441008597 1.006758522776897 12.485195591506205 0 0 0
2872 1 11.286171770395919 2.8014170062097254 12.246827463931314 0 0 0
3266 1 10.780441878067437 2.5268900006677497 13.24762100458659 0 0 0
3269 1 11.119228185140857 1.7698086846174057 12.697597288410693 0 0 0
2871 1 12.06913272458777 2.1316728238367997 12.414054510083936 0 0 0
2876 1 13.141775558996823 2.445562764826989 12.638103883471448 0 0 0
3270 1 12.231604037256027 2.632451646742556 13.50325990746408 0 0 0
3273 1 13.17032814968075 2.091042640843503 13.558834142331092 0 0 0
2875 1 13.99762024041429 1.8965770318292114 12.8965512715232 0 0 0
2880 1 15.069981750038357 2.2104695944984813 12.658946659095163 0 0 0
3274 1 13.650717772529969 2.9459335040081256 13.856384673421509 0 0 0
3277 1 14.569158143988199 1.832414435301717 13.810811802302752 0 0 0
2879 1 15.883404854176982 1.710510433715886 13.081773366277051 0 0 0
3278 1 16.389339862689447 2.4887401448684674 14.000174939479738 0 0 0
2883 1 0.9123166629078373 3.5583002555015435 12.933192112728893 0 0 0
2884 1 16.661133597472556 3.931684116135923 12.710738029187176 -1 0 0
3281 1 16.69475756842999 3.531395467127057 13.801867402229194 -1 0 0
3282 1 0.8750075802459892 4.527706472391972 13.445234370884078 0 0 0
2887 1 2.707652549897101 3.2077634385794402 12.631464942251556 0 0 0
2888 1 1.915969411100334 3.9115248200535806 12.875457467655922 0 0 0
3285 1 2.128041745950934 3.1669981410852697 13.681493504440216 0 0 0
3286 1 2.873401062453987 4.22996558298009 13.170486198718725 0 0 0
2891 1 4.718409373741839 3.8097291524103016 12.253734632114721 0 0 0
2892 1 3.8296904908627716 4.391047244684099 12.390402201174963 0 0 0
3289 1 3.7029121378728536 3.6125410906389552 13.111981282980146 0 0 0
3290 1 4.6045360216484355 4.248168687686692 13.356335484102786 0 0 0
2895 1 5.861228294978316 3.4677385023846825 12.44170048911165 0 0 0
2896 1 5.0113868169914335 4.827804707035208 12.610641356953408 0 0 0
3293 1 5.328166424434548 3.34241027884396 13.413216755013421 0 0 0
3294 1 5.691842638612977 4.336101900635007 13.46455658088511 0 0 0
2899 1 7.294998714867868 3.2658872546346203 12.635567522289808 0 0 0
2900 1 6.492828171578591 4.364145776109504 12.79182668421368 0 0 0
3297 1 6.540453582103397 3.3807273920463383 13.268492163367414 0 0 0
3298 1 7.414697157558419 4.4056798313954335 13.455149569947563 0 0 0
2904 1 8.622869873769668 4.144175105115602 12.461339174104857 0 0 0
3301 1 8.0602351790704 3.620933312044336 13.234024898765727 0 0 0
2903 1 9.2059982621823 3.2050284969149847 12.862240374240208 0 0 0
2908 1 9.65963269774537 4.5713660858664005 12.39991360110995 0 0 0
3302 1 9.285585909685416 4.233274709346225 13.455224805813431 0 0 0
3305 1 10.053320058741653 3.4301486362735685 13.38668774009433 0 0 0
2907 1 10.600232927117414 3.6138519447207162 12.575062281182152 0 0 0
2912 1 11.611884784523793 4.222534505708025 12.71717572533649 0 0 0
3306 1 10.509974570539956 4.398560612699573 13.475623722218392 0 0 0
3309 1 11.19436132866086 3.3565962815111594 13.35755570523205 0 0 0
2911 1 12.262042101868502 3.2778522765437184 12.524178573544757 0 0 0
2916 1 13.951376909751154 4.274119690410878 12.803791717931576 0 0 0
3310 1 12.198386179599963 3.738230954872072 13.575220034062772 0 0 0
3313 1 13.227057526497997 3.6694745896996968 13.285896349503476 0 0 0
2915 1 14.33352812867749 3.126231890077969 12.691048361411083 0 0 0
2920 1 15.273130932506506 3.821933788342663 12.483057040790374 0 0 0
3314 1 14.169493199552164 3.7983834486358012 13.793516014399739 0 0 0
3317 1 15.068985229155528 3.2712131751721714 13.607434680145465 0 0 0
2919 1 15.858110365136389 2.8227554113905517 13.01183314449262 0 0 0
3318 1 15.802902265449498 4.446499901531231 13.157446796384368 0 0 0
2923 1 0.07716556413762587 5.029412006946206 12.918698793617748 0 0 0
2924 1 16.27982170305176 6.052793306507256 12.871758998685005 -1 0 0
3321 1 16.716413089925897 4.910331820707695 14.257496669937307 -1 0 0
3322 1 0.568893885589586 5.87568711688644 12.75879001874308 0 0 0
2927 1 3.115804902552897 5.130924266572903 11.910371722476961 0 0 0
2928 1 1.4272642413727514 5.714832338272294 12.094819673593062 0 0 0
3325 1 2.248511482078751 5.177071399621087 12.609142368672199 0 0 0
3326 1 2.5791005446964235 6.403392692346598 12.818880042467566 0 0 0
2931 1 4.257445449703795 5.567874516178968 12.660261282055657 0 0 0
2932 1 3.550730149558606 6.306434249616914 12.363417957256406 0 0 0
3329 1 3.3257251798381207 5.223898865893029 12.940864737481117 0 0 0
3330 1 4.466038580228029 6.035243201271578 13.516015189356665 0 0 0
2935 1 6.267942306306697 5.3996553577881 12.69323930473864 0 0 0
2936 1 5.204789577611772 5.9759616587245725 12.711876687114918 0 0 0
3333 1 5.509840852900881 5.309966111723267 13.414038835146375 0 0 0
3334 1 6.134101311161798 6.180545230083121 13.6618519111565 0 0 0
2939 1 7.280910468018521 5.116619813574134 12.54333258540497 0 0 0
2940 1 7.032390917688522 6.1561656330039956 12.715382969855588 0 0 0
3337 1 6.617751400968818 5.004073150507491 13.578847496158454 0 0 0
3338 1 7.565065504978357 5.559812157595539 13.503405120297153 0 0 0
2944 1 8.056605372368171 5.750777059337839 12.627905002513097 0 0 0
3341 1 8.426486456254368 4.943634180547747 13.210136253396593 0 0 0
2943 1 9.401648117740175 5.364853044736662 11.861014499489665 0 0 0
2948 1 9.968070062090652 5.7238554545922735 12.641469399101098 0 0 0
3342 1 8.936241840160056 5.8295661783442405 13.369013323105294 0 0 0
3345 1 9.965509985218238 5.3709926887294515 13.768395566779327 0 0 0
2947 1 10.725210854061576 4.790930476923844 12.266264673747555 0 0 0
2952 1 11.885956849350201 5.8866807229897935 12.718281104273 0 0 0
3346 1 10.997623537052535 5.2606618115918495 13.162577808769019 0 0 0
3349 1 12.12796321259339 4.8837541265998645 13.288084370900304 0 0 0
2951 1 12.648857647119321 4.3539606714708 12.539916419071039 0 0 0
2956 1 13.361598411068865 6.105683867576931 13.109974150750057 0 0 0
3350 1 12.402696935944675 6.3098224155837 13.53310328786638 0 0 0
3353 1 13.206388645171687 5.077438457454112 13.191916829489495 0 0 0
2955 1 14.81221124337714 4.930910107179135 12.27261695864791 0 0 0
2960 1 15.175216636290912 5.918274228214889 12.390361073407831 0 0 0
3354 1 14.550658953765963 5.576566511572607 13.175292956928079 0 0 0
3357 1 14.935194722604434 4.61002643004636 13.835802810870945 0 0 0
2959 1 15.878895152817318 5.179467939457821 12.359857192587643 0 0 0
3358 1 15.86396018926564 5.410096485033533 13.778435683864169 0 0 0
2963 1 16.314607241763657 6.864192516902886 12.183310338812406 -1 0 0
2964 1 16.570998123427692 7.891134375658517 12.326759943170046 -1 0 0
3361 1 0.11550113806862225 6.975997761681929 13.29154315285031 0 0 0
3362 1 0.7171168917909214 7.4788841980263285 12.45402373238862 0 0 0
2967 1 2.731694472579161 7.0361134986876674 12.007798380768538 0 0 0
2968 1 1.6751189345155124 7.529590651958739 11.918119781391267 0 0 0
3365 1 1.4086833355644328 6.746774337478072 12.866406642627796 0 0 0
3366 1 2.1452765855191425 7.5947693850763285 12.992450153297334 0 0 0
2971 1 4.540826891853264 6.122818297188526 11.693830665327544 0 0 0
2972 1 3.292381485338883 7.182275789069943 13.042467589810883 0 0 0
3369 1 3.471368461029581 6.119657097408461 13.42145229020811 0 0 0
3370 1 4.428103443829761 6.9542367483653305 12.684744484958562 0 0 0
2975 1 5.967686990616973 6.529674676084428 12.286896585793627 0 0 0
2976 1 4.89398699016303 7.23048954409441 11.6266003549821 0 0 0
3373 1 5.251754999331947 6.730141996840093 13.474473581638607 0 0 0
3374 1 6.062445256609802 7.274613181990978 13.692674125839877 0 0 0
2979 1 7.698915019174141 7.107544876775924 12.272707768202222 0 0 0
2980 1 6.795115737604563 7.1436352817508615 12.850880603193128 0 0 0
3377 1 7.047213416046512 6.601115314781173 13.650863864125599 0 0 0
3378 1 7.551983030603288 7.549125932408569 13.700083169672398 0 0 0
2984 1 8.603387249471487 7.2851684632421305 12.795220956139778 0 0 0
3381 1 8.036860068138855 6.556189736692019 13.310025950249441 0 0 0
2983 1 9.103545306114402 6.4274287389822415 12.513017947014484 0 0 0
2988 1 9.794535442113142 7.375363551423945 12.490579311894608 0 0 0
3382 1 9.472586751180776 6.821864201357759 13.448636639683563 0 0 0
3385 1 10.630414836696426 6.503722329051771 13.481691453591933 0 0 0
2987 1 10.634743459233498 6.759253769765002 12.551166480531611 0 0 0
2992 1 11.439357376835886 7.654230564161232 12.401758940888499 0 0 0
3386 1 10.53061774088883 7.688930030295236 13.11086271325785 0 0 0
3389 1 11.570459257139712 6.831545578434461 13.088842348564986 0 0 0
2991 1 12.753084726723174 7.149739997899988 13.036412385262492 0 0 0
2996 1 13.763882830182329 7.115347488586066 12.802572660743678 0 0 0
3390 1 12.497852515731738 7.919900532232866 13.69243693672542 0 0 0
3393 1 13.196456624388658 6.891244560146758 13.885898978590877 0 0 0
2995 1 14.284814120109127 6.408432516643695 12.411744131646774 0 0 0
3000 1 14.71783375221672 7.593162811631417 12.985506201911637 0 0 0
3394 1 14.2229512664033 6.5944275761523325 13.68064546093545 0 0 0
3397 1 15.145085431664201 6.587941475278129 13.24921325876153 0 0 0
2999 1 15.850351202149337 7.46864910217389 13.118014205003648 0 0 0
3398 1 16.226151144281378 7.7730321701161875 14.056932064877948 0 0 0
3003 1 0.44363498922958766 8.93018754255616 12.615293850994933 0 0 0
3401 1 16.729809891299777 9.09748201099907 13.646748376896733 -1 0 0
3007 1 2.29105829196302 8.486594737427962 12.27359784908189 0 0 0
3405 1 1.3576492226433576 8.324032737858516 12.733413306856344 0 0 0
3011 1 5.254057745482352 7.858835983550196 12.841142712134594 0 0 0
3409 1 3.3307906693246383 8.146637699801166 12.780735026483903 0 0 0
3015 1 6.1318938012700315 8.887775987804366 12.658710801954099 0 0 0
3413 1 5.108135126542506 8.722162892409754 13.42048231852943 0 0 0
3019 1 7.468321150992769 7.991421462324082 12.723985437663321 0 0 0
3417 1 6.65770550898263 8.083810717310412 13.355076985572081 0 0 0
3421 1 8.297932138065095 8.128528189104257 14.020280733431548 0 0 0
3023 1 9.299336539477196 8.343263339908297 12.916352290326554 0 0 0
3425 1 10.152837270006115 8.584820149761036 13.439466417759652 0 0 0
3027 1 10.788245513773578 8.600167525108562 12.541278658435353 0 0 0
3429 1 11.643932750067409 8.380094569058398 13.213746858688845 0 0 0
3031 1 12.764245736003478 8.444711668805224 12.902561770485603 0 0 0
3433 1 13.613344135601254 7.890547356270169 13.495771735329956 0 0 0
3035 1 14.152529922392096 8.412361403790387 12.47897608685233 0 0 0
3437 1 15.419325231988884 8.371552154095363 13.614925752568078 0 0 0
3039 1 15.394112729295038 8.129887308827948 12.52439456309437 0 0 0
3004 1 16.198699688715134 8.817960545467562 12.832658376571416 -1 0 0
3043 1 0.5110116757844769 10.353793796921329 12.24887709365548 0 0 0
3402 1 0.954742250738829 9.53013771819124 13.314647721906166 0 0 0
3441 1 0.21076628289800145 10.276509072519225 13.258158432484507 0 0 0
3008 1 1.488376793762219 9.337908613067412 12.401746879565925 0 0 0
3047 1 2.611442149573569 11.544903314278589 12.78252562338874 0 0 0
3406 1 2.6869089478450325 10.17026178148414 12.911139506988214 0 0 0
3445 1 1.7153641633601808 10.555472922565569 13.659487492375202 0 0 0
3012 1 3.027936536361115 9.184222190741878 12.855901818447816 0 0 0
3051 1 3.936507770269034 10.246988316129803 12.139819790714581 0 0 0
3410 1 4.275554228919624 8.967610988446783 12.959117090658712 0 0 0
3449 1 3.8142913674103958 9.881899953489095 13.202949061785395 0 0 0
3016 1 5.093000572177991 9.43294305187631 12.419925122662168 0 0 0
3055 1 5.888611257568157 10.37155792201327 12.91223984017106 0 0 0
3414 1 6.230189342759366 9.259994538216601 13.75108529502396 0 0 0
3453 1 5.07261852460148 9.723909052535586 13.455695875395818 0 0 0
3020 1 7.275172798283489 8.986776413100879 12.599609596032062 0 0 0
3059 1 8.182906761969791 9.824966487959331 12.696398138911892 0 0 0
3418 1 7.486114146363366 8.655478454974695 13.544416455698366 0 0 0
3457 1 7.015010043963273 9.871673825540835 13.482297427687774 0 0 0
3024 1 8.275276139817114 8.666661759152763 12.557615010026458 0 0 0
3461 1 7.855409276209973 10.646080660608515 13.371664654497907 0 0 0
3028 1 10.059811608486008 9.65250010405484 12.996230251941508 0 0 0
3063 1 8.97173562555018 10.503091883589581 12.688870055991389 0 0 0
3422 1 9.298239316580233 9.179094959566052 13.586952246921577 0 0 0
3465 1 10.019101162799794 10.432941684713517 13.758479531153972 0 0 0
3032 1 11.933464786991994 9.1912977858853 12.60807083441244 0 0 0
3067 1 11.066360601480913 9.941252588383396 12.615700020534803 0 0 0
3426 1 11.034504761330453 9.198924755827402 13.339319109806134 0 0 0
3469 1 12.29882809985164 10.380368210598602 13.78567026598495 0 0 0
3036 1 13.483113155980378 9.224331622938527 12.765177016546378 0 0 0
3071 1 12.6246030908123 10.012263484733259 12.738477895817677 0 0 0
3430 1 12.479177028175052 9.282886241256437 13.42334684743522 0 0 0
3473 1 13.44197659981149 9.955748284772929 13.486051811943423 0 0 0
3040 1 15.087253293644702 9.095467523695524 12.811164793616877 0 0 0
3075 1 14.077654308898392 10.108373708194883 12.489286573985138 0 0 0
3434 1 14.273402022698432 8.948399271578543 13.483230187635492 0 0 0
3477 1 14.857951747076887 10.013940232383538 13.455533924576647 0 0 0
3079 1 15.773814636072169 10.00544745754125 12.547115097301107 0 0 0
3438 1 15.897490810847291 9.659945556093927 13.576036407615408 0 0 0
3044 1 16.62857174144153 11.249787016647211 12.658821349399238 -1 0 0
3083 1 0.4140962139542476 12.271842995524127 12.795977856661516 0 0 0
3442 1 16.786895928114692 11.181507927943807 13.691797799908906 -1 0 0
3481 1 0.21808995842695933 12.659823067530189 14.022559846722096 0 0 0
3048 1 2.4662679574019237 11.80675320138308 14.37424777715966 0 0 0
3087 1 1.80588701910517 12.23110040926133 12.52724140939271 0 0 0
3446 1 2.585224446028336 11.019018039758178 13.70164600596322 0 0 0
3485 1 1.3897452265022372 11.380311253464807 14.3313926661268 0 0 0
3052 1 3.4789472584284327 10.856480763779292 12.922104014682358 0 0 0
3091 1 3.9163419052992334 11.84820094285334 12.60770746560947 0 0 0
3450 1 3.563159406386829 10.648195689151676 13.937252729748574 0 0 0
3489 1 3.370710474169218 11.62956478366252 13.647528545432365 0 0 0
3056 1 4.546261479566429 10.627577459516704 12.900822760754014 0 0 0
3095 1 5.964296578078358 12.101507970546837 12.71162554047174 0 0 0
3454 1 6.489908156410996 11.213935350648985 13.037518753569852 0 0 0
3493 1 5.015379203535754 11.713560775197434 13.039560758657208 0 0 0
3060 1 7.040249599058444 10.11785247839508 12.359776756290504 0 0 0
3099 1 7.241394083493223 11.791191303083679 12.019817579026336 0 0 0
3458 1 6.934635098916993 11.398066391010216 13.927319126452177 0 0 0
3497 1 6.5830094690435725 12.256546110988925 13.4980809044105 0 0 0
3064 1 8.29472084024506 11.275775599430412 12.287384194727457 0 0 0
3501 1 7.448266494060965 11.482901009912721 12.911109445629803 0 0 0
3068 1 11.057332541883264 10.97532474515724 13.00974464800037 0 0 0
3103 1 9.001345957207874 11.987886815922574 12.591864387907151 0 0 0
3462 1 9.582305463870663 11.283116200816995 13.102522056332402 0 0 0
3505 1 9.77547985179582 12.035403311327656 14.296240504700295 0 0 0
3072 1 12.030716446413502 10.908026178666308 12.83720271588243 0 0 0
3107 1 11.141450006967125 12.249907825995798 13.059010245027968 0 0 0
3466 1 11.379796394447672 10.16348441937294 13.551244096579614 0 0 0
3509 1 11.604631226298036 11.488169869227328 13.851851342039199 0 0 0
3076 1 13.268345857679762 10.902242402040981 12.34976008070604 0 0 0
3111 1 12.191271251284038 11.903138874710747 12.89827975854961 0 0 0
3470 1 12.906108350606 11.162907546663249 13.416339404798826 0 0 0
3513 1 13.64659698766426 11.862585296071217 13.208216344719457 0 0 0
3080 1 15.112006161604416 10.80156761079736 12.758527233033151 0 0 0
3115 1 14.279036230076601 11.36206562029222 12.546158226390121 0 0 0
3474 1 14.22109621156265 10.837890000363164 13.366411817189249 0 0 0
3517 1 15.01904535396766 11.792573613719153 13.533038945649299 0 0 0
3119 1 15.699500621359036 11.70803129446692 12.595076029956411 0 0 0
3478 1 15.7715958177733 10.87216266352604 13.677809986049976 0 0 0
3084 1 16.131444868627792 12.698185184555516 12.950968338997058 -1 0 0
3123 1 0.13391914060476107 13.553186617116523 13.184520603813233 0 0 0
3482 1 1.7884328709468822 11.755220508461512 13.47856302065091 0 0 0
3521 1 15.89874927042891 13.16609604455689 14.31243799639918 -1 0 0
3088 1 1.2293964059267115 12.746636814552884 13.243043531091141 0 0 0
3127 1 1.1122623458603613 14.077185255025297 13.474839413601329 0 0 0
3486 1 2.3133658746105694 12.634777466378674 13.577141067437763 0 0 0
3525 1 1.768131311623229 13.457135514189776 13.989453758952875 0 0 0
3092 1 3.015485038440444 12.693230441294316 12.712011551880599 0 0 0
3131 1 4.111555478714039 13.224015206718185 12.607283954848409 0 0 0
3490 1 4.295783592570452 12.46262801208534 13.484013217976155 0 0 0
3529 1 2.614439161552624 13.707642020039575 13.39810490478092 0 0 0
3096 1 5.077833502795728 12.93501589584758 12.918275845638806 0 0 0
3135 1 5.7236143525373295 13.75488995330185 12.282466835333134 0 0 0
3494 1 6.193896794365813 13.310260434227533 13.098446832117933 0 0 0
3533 1 4.5799144165206656 13.276909838215312 14.020424885019466 0 0 0
3100 1 6.507884831163447 12.151761530756465 11.319208761515588 0 0 0
3139 1 7.340870470974711 13.613296773627772 12.303381033856471 0 0 0
3498 1 6.865272014896976 12.687708177845666 12.48501749297574 0 0 0
3537 1 6.409296320564378 14.446762865030724 12.610768941632982 0 0 0
3104 1 8.082828371952935 12.344969726481049 12.757347299414612 0 0 0
3541 1 7.979077176611482 13.591924572574811 13.35775739026815 0 0 0
3108 1 9.749964535630946 12.605726838766923 13.094612563472454 0 0 0
3143 1 8.347153699759383 12.975031677112112 11.794241936872796 0 0 0
3502 1 10.178593047454763 14.150958533847154 12.803313681786344 0 0 0
3545 1 10.524314596913737 13.892036800844007 13.87121606623607 0 0 0
3112 1 12.031141477959652 13.006497451660328 12.62570408218637 0 0 0
3147 1 11.4005114077093 14.357188156012553 13.001757384263808 0 0 0
3506 1 10.865506729681792 13.397027615753771 12.980171211950834 0 0 0
3549 1 11.747324314996277 13.4927057512319 13.569132584710523 0 0 0
3116 1 14.148654029051484 12.50731534011382 12.478367664166658 0 0 0
3151 1 12.947146561424953 12.627700418599987 12.985733179930424 0 0 0
3510 1 12.220085891043214 12.480100025248658 13.82005660415851 0 0 0
3553 1 13.163201252149006 12.434715745852117 14.089579881117702 0 0 0
3120 1 15.19904137447872 12.926357272523685 13.271582674642092 0 0 0
3155 1 13.758678913959141 13.571958564170336 13.182727769482277 0 0 0
3514 1 14.196153592405182 12.677501658613506 13.52841453343964 0 0 0
3557 1 14.918505708496646 13.384451980723888 14.556586099309643 0 0 0
3159 1 14.742272528070982 13.765509297636129 13.639962255383992 0 0 0
3518 1 16.038966084750548 11.939450113827105 13.682409627553094 0 0 0
3124 1 0.5195005189794235 14.450606162477333 12.702124275982724 0 0 0
3163 1 0.12294818975157884 15.678529027007356 13.102768827137352 0 0 0
3522 1 0.45510494410833485 13.702127395552223 14.281849266764356 0 0 0
3561 1 0.001937225407244555 14.57604767638355 13.614515184190953 0 0 0
3128 1 1.0160474269641873 15.293732010620003 13.241334133554979 0 0 0
3167 1 1.8624237804060808 15.455491623696275 12.784637811024059 0 0 0
3526 1 2.1414425218756796 14.737471715075099 13.879495353166115 0 0 0
3565 1 0.7833017568119525 15.431505950885345 12.206902523051477 0 0 0
3132 1 3.381104483038217 14.24811170307187 12.485614646701524 0 0 0
3171 1 3.989729623091009 15.182171031683986 12.751929657809717 0 0 0
3530 1 4.367307538804668 14.166240348636611 13.347862626484755 0 0 0
3569 1 2.944632305580566 15.598271587093095 13.470880287122334 0 0 0
3136 1 4.698661124219796 14.174199429166261 12.305818244019267 0 0 0
3175 1 6.194419433359863 14.4908463511539 11.10650946876515 0 0 0
3534 1 5.508383401842617 14.230382952349638 13.186254563129939 0 0 0
3573 1 4.88354782275846 15.078520610668763 13.49884934282566 0 0 0
3140 1 7.158741890980225 14.72476691913806 11.907241004064408 0 0 0
3179 1 8.144058500359902 16.10521864775711 11.354486364487755 0 0 0
3538 1 7.442223053954278 14.460870016721 12.964158748390313 0 0 0
3577 1 6.462185195611071 15.057947632034415 13.477759800576157 0 0 0
3144 1 8.413052355582725 14.186939394200259 12.338987555408227 0 0 0
3581 1 8.434252490644916 15.142200440143764 13.152422600067096 0 0 0
3148 1 10.15043528952694 15.220710558164088 12.207259409946435 0 0 0
3183 1 9.097123642173134 15.044598648821118 12.20882136063856 0 0 0
3542 1 9.059353740754073 14.271318052534095 13.16348155753552 0 0 0
3585 1 10.242355403904526 15.003293558513244 13.536486394377548 0 0 0
3152 1 12.122051343889543 15.042331676029715 12.397803579141495 0 0 0
3187 1 10.677728878694074 16.059601815844218 11.646907438112232 0 0 0
3546 1 10.405632738157454 14.463327628108537 14.826816209003002 0 0 0
3589 1 12.045176331513941 15.42523614006839 13.399984926330477 0 0 0
3156 1 12.736388906462834 13.740391617612286 12.851747550200768 0 0 0
3191 1 13.08107923078022 14.54016726554983 12.04764484626228 0 0 0
3550 1 12.414395834175775 14.476884146385098 13.482437548044176 0 0 0
3593 1 13.074950682619166 15.042312494587339 12.974441203717351 0 0 0
3160 1 15.744897819914017 13.43334701153397 11.886475926456418 0 0 0
3195 1 14.142487054886692 14.62468174668206 13.276514875494243 0 0 0
3554 1 12.836256584092055 13.467071502438781 13.866908306946558 0 0 0
3597 1 15.392334260375048 14.334866501905621 14.176787835345511 0 0 0
3199 1 16.271661705985696 14.610786314845345 12.634326171706585 0 0 0
3558 1 15.936187807890136 13.720964290616346 13.488862926375763 0 0 0
3164 1 16.002581590376664 15.24413411526445 13.410373277419426 -1 0 0
3562 1 0.5153533994187072 16.652608273738846 12.667572735718874 0 0 0
3168 1 16.47766553023438 15.461813695071 11.970364743658534 -1 0 0
3566 1 2.0151082253529258 15.830290616690567 13.744563648715795 0 0 0
3172 1 3.3385533172726207 16.286683712150037 12.814390145585547 0 0 0
3570 1 4.039851485270171 16.134195542323564 13.53488426736511 0 0 0
3176 1 4.923993505012548 15.943386895940542 12.79849972564013 0 0 0
3574 1 5.566744621326538 15.984674806118978 13.725831627859124 0 0 0
3180 1 6.367915400876901 15.369624317307943 11.639081516066394 0 0 0
3578 1 7.756793132923798 16.37116099562029 13.111595777987167 0 0 0
3184 1 7.545038610677771 15.594813405701089 12.423460116360365 0 0 0
3188 1 10.333326492840609 16.420939673445513 12.719325299331524 0 0 0
3582 1 9.404768152930792 15.503223948899516 13.081857962496121 0 0 0
3192 1 12.247550235648832 16.183143107913768 12.523013617370323 0 0 0
3586 1 11.247812908390074 15.785823425426274 12.533946150197101 0 0 0
3196 1 13.258828091222876 15.980280199210222 12.4223146022054 0 0 0
3590 1 12.458727891442408 0.1931124770097364 13.30508597146902 0 1 0
3200 1 13.408585460510366 16.527320755603785 13.513000962049482 0 0 0
3594 1 13.298018257273235 16.220170886292784 14.95307377563911 0 0 0
3598 1 14.92245231465745 15.258660103351096 13.481030211392339 0 0 0
3203 1 0.8829422338190218 0.16251598136431641 14.408513921433068 0 0 0
3204 1 16.584430090096852 1.690582798858898 14.588258668255413 -1 0 0
3601 1 16.29493909853109 16.057372515518082 14.87682280388186 -1 -1 0
3602 1 0.8344830754431031 1.2521669263154855 14.651392081565232 0 0 0
3207 1 2.5146937592100707 0.4734031768189833 14.049175015214546 0 0 0
3208 1 1.6547694740071903 1.097520510097656 13.912733555720449 0 0 0
3605 1 1.6823081121240528 0.5368355447419539 14.884330092246215 0 0 0
3606 1 2.605888540120121 0.9409332303489283 15.012902856193485 0 0 0
3211 1 4.1444736314317145 16.794859185550525 14.380534463502316 0 -1 0
3212 1 3.4885476860710054 0.8372762160783939 14.413048572206439 0 0 0
3609 1 3.488978866776902 0.11363345197918302 15.297428043188745 0 0 0
3610 1 4.322671083748658 0.9716848216166228 15.274250403220039 0 0 0
3215 1 5.89591748143193 0.20405312084182892 14.152918290174165 0 0 0
3216 1 5.168792439905736 0.9488570551009146 14.244166570200687 0 0 0
3613 1 5.290446975367117 16.621357215163982 14.999606329288003 0 -1 0
3614 1 6.076084408215158 1.0044795614912305 15.079559705400014 0 0 0
3219 1 7.506915898228876 0.2060003620312801 14.11734034861784 0 0 0
3220 1 6.717034324465808 0.9793915389844123 14.162517511781969 0 0 0
3617 1 6.671165926190502 16.6275837443967 14.857103481341431 0 -1 0
3618 1 7.221556263179218 0.6281977424601655 15.071924867836717 0 0 0
3224 1 8.464753442453476 0.8755774091098398 14.185641695325529 0 0 0
3621 1 8.428023454182139 16.78624233205829 14.601178395872688 0 -1 0
3223 1 9.535360613178819 0.05252183771734467 13.735918842763288 0 0 0
3228 1 9.49011706796157 0.6713061978965555 14.590998004272029 0 0 0
3622 1 9.366892236854843 1.410898085635833 15.405670995826174 0 0 0
3625 1 10.125920246216525 16.516252409851486 14.676077300599179 0 -1 0
3227 1 11.054475951671124 0.4718828964108875 14.413836790988817 0 0 0
3232 1 11.272937698992797 1.7197921806677339 13.85008087475523 0 0 0
3626 1 11.10434052048931 0.20419807822257915 15.47440805644429 0 0 0
3629 1 11.25195059282956 16.24238454733338 14.66249469937927 0 -1 0
3231 1 11.97179695547971 0.8230072209164344 13.979680089606449 0 0 0
3236 1 12.865954715914755 1.032880336188742 14.939337538729202 0 0 0
3630 1 11.642928518816918 1.0874685230695527 15.173690069023785 0 0 0
3633 1 12.066056217940544 1.737877627912605 15.794966353948848 0 0 0
3235 1 13.761171551292586 0.893843285834429 14.395828259270667 0 0 0
3240 1 14.978072536676553 0.6785907966673006 13.96545268849283 0 0 0
3634 1 13.900992549295534 1.2181093501845142 15.407002076475363 0 0 0
3637 1 15.285260226439053 16.434864194181845 14.885093006630662 0 -1 0
3239 1 15.769290674273376 16.32340706620289 13.738345733265591 0 -1 0
3638 1 16.02991927805725 0.43820534333135247 14.614141526037965 0 0 0
3243 1 0.7764792442678465 2.1204190451383282 13.979046467798888 0 0 0
3244 1 16.693827705965898 2.9500271744056095 15.061858397992468 -1 0 0
3641 1 15.743861600103017 1.0648490350241937 15.564403681089603 -1 0 0
3642 1 16.632072747031454 2.3683807334604574 15.926052112156112 -1 0 0
3247 1 2.845245284644403 1.5710109467671822 14.116136121543404 0 0 0
3248 1 1.948870626720343 2.214597886539506 13.908336355040948 0 0 0
3645 1 1.9085588450987514 1.696498198699544 14.882454723027886 0 0 0
3646 1 2.724120283017302 2.684880605051726 14.751219998952077 0 0 0
3251 1 4.118916869120701 1.6891208394534254 14.27292760878381 0 0 0
3252 1 3.4579611900381955 2.52213930914506 14.005933534121992 0 0 0
3649 1 3.4092896456991753 1.7940404942034411 15.149727554606324 0 0 0
3650 1 4.126448128568031 2.6175144782568225 15.036917208119855 0 0 0
3255 1 5.941561131562835 1.7138620923585415 14.202089930263366 0 0 0
3256 1 4.954754775280843 2.4301273620955395 14.339101002970724 0 0 0
3653 1 5.2199907442588485 1.6687392091500128 15.09150007944544 0 0 0
3654 1 6.000318260989999 2.4380899945844514 15.198845897108729 0 0 0
3259 1 7.63874022431076 1.4486567900004939 14.350281997156012 0 0 0
3260 1 6.748203041760106 2.413938499733828 14.30568370615751 0 0 0
3657 1 6.813963936815936 1.7710151360217437 15.25069906509244 0 0 0
3658 1 7.557519034428049 2.644851193705383 14.953649134018852 0 0 0
3264 1 8.223381588260379 2.622506641802641 14.16682190030289 0 0 0
3661 1 8.406210562711287 1.8630115723782452 15.018978701569367 0 0 0
3263 1 9.317828632578633 1.6731874410460983 14.429770812076011 0 0 0
3268 1 10.392146690571693 2.563772680083921 14.357238700750194 0 0 0
3662 1 9.176102165274871 2.637216590981378 14.831652012181005 0 0 0
3665 1 10.682153533655995 1.300965656542232 15.638234469683365 0 0 0
3267 1 10.389880027295918 1.3854095640069224 14.586093672889424 0 0 0
3272 1 11.534760997249204 2.936186177012844 14.237684968540972 0 0 0
3666 1 10.045716799722285 2.251593244485745 15.476646868166092 0 0 0
3669 1 11.189937347397883 2.2078218092206545 14.984248177050892 0 0 0
3271 1 12.197856668071617 2.0009733372703615 14.390271149840858 0 0 0
3276 1 12.897459413781553 2.9111876114527595 14.41313438417841 0 0 0
3670 1 12.189262834059011 2.7744522231244333 15.30439393645707 0 0 0
3673 1 12.920381479841891 2.044019999326544 15.289803039993192 0 0 0
3275 1 13.706538544985676 2.0588850055629746 14.51808061225412 0 0 0
3280 1 14.90067557665527 2.7825529740492008 14.707321682372823 0 0 0
3674 1 13.627324530121598 2.868535053493753 15.223333843819972 0 0 0
3677 1 14.382125912290409 2.0970496445724356 15.35001160173139 0 0 0
3279 1 15.59726591601697 1.7667421571007418 14.25491992430342 0 0 0
3678 1 15.673601983015276 2.27060027598793 15.284574026067801 0 0 0
3283 1 0.8573907320504393 3.553951056920574 14.945900262719531 0 0 0
3284 1 16.70183103759534 4.021777621879434 15.059097714588114 -1 0 0
3681 1 15.924825603687776 3.3310512712263405 15.77381980876789 -1 0 0
3682 1 0.8330141109721929 4.470769510811556 14.512286339526108 0 0 0
3287 1 3.096541323504962 3.5488614961193456 13.999332709360814 0 0 0
3288 1 1.900948160490939 4.268746860939626 14.023936287738175 0 0 0
3685 1 1.9990345328709578 3.4533351827167693 14.875429239895974 0 0 0
3686 1 2.679981472121566 4.342062065931776 14.755821659070401 0 0 0
3291 1 4.357606437935979 3.323674724614273 14.160338095787775 0 0 0
3292 1 3.825849712398296 4.260494292092492 14.1396685948246 0 0 0
3689 1 3.550250017698156 3.4855347169669724 14.942512468966568 0 0 0
3690 1 4.302660209015262 4.187432157062226 15.3034880163287 0 0 0
3295 1 5.744241081695445 3.1917885488974416 14.408957446073568 0 0 0
3296 1 5.101399550160012 4.211483356692483 14.400798095197931 0 0 0
3693 1 5.083719227457451 3.224052721704755 15.11666884285205 0 0 0
3694 1 5.933807807097813 4.190766708044005 15.15454446744055 0 0 0
3299 1 7.383930105301928 3.332454394304988 14.09926106637099 0 0 0
3300 1 6.558577329453976 4.16804127363318 14.30681768522261 0 0 0
3697 1 6.639175459049823 3.2974990708969876 15.063609564162377 0 0 0
3698 1 7.406007768407738 4.1117155226433235 15.063626991549357 0 0 0
3304 1 8.241940655902416 4.10555046539796 14.252577985627228 0 0 0
3701 1 8.415170204457324 3.35067950350736 15.006757354721447 0 0 0
3303 1 9.02595340538527 3.4176671615613015 14.151970214456806 0 0 0
3308 1 9.865363421726014 4.318602841248903 14.299159233838118 0 0 0
3702 1 9.133711285547378 4.09313621240318 15.102662904498072 0 0 0
3705 1 9.9188300639201 3.2824732259811644 15.05040654075197 0 0 0
3307 1 10.770854057679978 3.6394586347964535 14.268925642278305 0 0 0
3312 1 11.46548231008705 4.3887050077099845 14.043577817444387 0 0 0
3706 1 10.67494475588877 4.233495871691545 15.206758087649957 0 0 0
3709 1 10.977432380393175 3.1976587032971366 15.18827339159348 0 0 0
3311 1 12.14427075473801 3.6759194961768547 14.693928070172545 0 0 0
3316 1 12.927147613201658 4.459666107395904 14.010213059576051 0 0 0
3710 1 11.635852561208802 4.084236997798976 15.507284686392305 0 0 0
3713 1 12.77656990886844 3.4821607845562075 15.62697747647787 0 0 0
3315 1 13.416718288298252 3.8032937169894754 14.78958210357581 0 0 0
3320 1 14.80746470520738 3.8029046462627334 14.502823046930756 0 0 0
3714 1 13.6397014338286 3.874281363456999 16.01220048360328 0 0 0
3717 1 14.47195470907122 3.4141637881497515 15.380726853963465 0 0 0
3319 1 15.896809129720328 3.249573567268996 14.45072822114705 0 0 0
3718 1 15.352383863024246 4.16256960257472 15.27512313483763 0 0 0
3323 1 0.8402932092102686 5.501984613436904 14.087422998958285 0 0 0
3324 1 0.018409684888230787 6.02895262293407 13.759606890380546 0 0 0
3721 1 0.41634844510424984 5.329168671719941 15.191148611342847 0 0 0
3722 1 1.188622347314884 5.941287342254776 14.889343317776067 0 0 0
3327 1 2.4887106200631757 5.116639716603473 13.792589157121888 0 0 0
3328 1 1.8707077808071622 6.039695563269439 13.69784628335403 0 0 0
3725 1 1.7934130486471567 5.101196026902764 14.661278534067145 0 0 0
3726 1 2.504407415695263 5.826872368805193 14.70003605879469 0 0 0
3331 1 4.511340956434425 5.11102768540471 14.003705148423716 0 0 0
3332 1 3.4942777249944847 5.702194385203358 14.375299140488734 0 0 0
3729 1 3.494380212990977 4.941104079692596 15.118330110427184 0 0 0
3730 1 4.444844864824934 5.789427718961437 15.25459531398997 0 0 0
3335 1 5.919598009274257 4.974445229048683 14.331598133432276 0 0 0
3336 1 5.241592817607176 5.832057182204363 14.381324730993509 0 0 0
3733 1 5.087396330272166 4.931112579941529 15.137688767295739 0 0 0
3734 1 5.998653902778649 5.699381725485211 15.122930315005773 0 0 0
3339 1 7.541040036892747 5.062249213937041 14.473050555864686 0 0 0
3340 1 6.828576387887275 5.796955891880024 14.334700280305606 0 0 0
3737 1 6.750614416228028 4.910071643371822 15.160551836829539 0 0 0
3738 1 7.656455740262134 5.912248821468765 15.217087935160501 0 0 0
3344 1 8.300949784794229 5.868129692897752 14.353212207762656 0 0 0
3741 1 8.394697652851837 5.094563557519103 15.188120884436476 0 0 0
3343 1 8.869958045449787 4.932002415801638 14.221684870989971 0 0 0
3348 1 10.344989366068393 6.0029404481773705 14.519817221046239 0 0 0
3742 1 9.13439423436107 5.87746056849636 15.276577995312222 0 0 0
3745 1 9.836467762660055 5.202239616059411 15.003192545252869 0 0 0
3347 1 10.7293329891081 5.081290112942532 14.358382394195793 0 0 0
3352 1 11.382824216590548 5.9040282778008475 13.891655892088945 0 0 0
3746 1 10.737835893301535 5.758639160699936 15.417036274474182 0 0 0
3749 1 11.562516933841 5.031828036718421 15.03557348573319 0 0 0
3351 1 12.249450516871569 5.281124727434506 14.230896237397149 0 0 0
3356 1 13.159119193840912 5.796431328324942 14.082811529339402 0 0 0
3750 1 12.4438720620226 5.942751774063714 14.963521291202742 0 0 0
3753 1 12.745210897993315 4.575877594699814 15.322127852787172 0 0 0
3355 1 13.408589787875206 5.442577842597762 15.024388350687126 0 0 0
3360 1 14.135878123942108 5.075055863850685 14.26822200930787 0 0 0
3754 1 14.220052532830866 6.025789074364068 14.761671395766896 0 0 0
3757 1 15.131129239049834 5.186712638759949 14.913809404091076 0 0 0
3359 1 15.740491774821614 4.442866059714312 14.391482856859088 0 0 0
3758 1 15.693765872908312 6.507909920965584 16.07881791155207 0 0 0
3363 1 1.052638548591621 6.57331955375619 14.06603407714696 0 0 0
3364 1 0.1876115218059399 8.166238546327415 13.185282904223314 0 0 0
3761 1 0.24118028706016378 6.36433954068624 14.800722587463847 0 0 0
3762 1 1.0524328747878502 7.570712010929403 14.830207183398961 0 0 0
3367 1 2.5111890380707327 6.992918152318689 13.641929385495636 0 0 0
3368 1 1.1903874568877713 7.479145510825307 13.544911864701048 0 0 0
3765 1 1.8361481884196265 6.695428209693769 14.758455699702507 0 0 0
3766 1 3.21171003245254 7.826217228863679 13.898032827131283 0 0 0
3371 1 3.9831113926901525 7.01102242079084 13.879946885873768 0 0 0
3372 1 4.260014342288262 7.92413927716625 13.468164715055178 0 0 0
3769 1 3.1916697730994232 6.720724772769251 14.436549151570329 0 0 0
3770 1 3.9707512044774282 7.507371709503662 14.913760621735449 0 0 0
3375 1 5.8978924975979465 6.773747303533412 14.627989960788373 0 0 0
3376 1 5.146750044180016 7.613604551403739 14.328070200617395 0 0 0
3773 1 4.719423441598964 6.696367367961511 15.125400738478097 0 0 0
3774 1 5.744075082755108 7.657329966834646 15.166913060411169 0 0 0
3379 1 7.659930394233003 6.770088105302339 14.482301592782933 0 0 0
3380 1 6.693282726733138 7.4703904625220945 14.480405409458596 0 0 0
3777 1 6.7948918103163205 6.530520910308959 15.22346894464925 0 0 0
3778 1 7.684358401208384 7.4765617655028205 15.089587163552178 0 0 0
3384 1 8.5170334565691 7.096331425362934 14.058215725676563 0 0 0
3781 1 8.465470961202001 6.691984688500199 15.163243919617072 0 0 0
3383 1 9.358882450742547 6.392244155814706 14.406420382656819 0 0 0
3388 1 10.115566624480328 7.661254450785745 14.09405283835845 0 0 0
3782 1 9.166773361865273 7.53578195380818 14.823908992692585 0 0 0
3785 1 10.30262255820664 7.166310384682838 15.02953159660699 0 0 0
3387 1 11.186994472142583 7.248461698159876 14.12992151308757 0 0 0
3392 1 10.991300660613346 8.253277883022536 14.142551585241598 0 0 0
3786 1 11.087107703913434 7.613730714406825 15.788873311679968 0 0 0
3789 1 11.307287650431268 6.474798316911474 14.822322961790627 0 0 0
3391 1 12.206339782638068 6.866520067479021 14.47218849862833 0 0 0
3396 1 13.12344780362298 7.8029912329207685 14.560365651286816 0 0 0
3790 1 11.905276465722952 7.8474922902686215 14.911480001255963 0 0 0
3793 1 13.3087549053049 6.620732461869878 14.78752111320046 0 0 0
3395 1 15.125469877239196 6.202937261892566 14.286308486402026 0 0 0
3400 1 15.237783019341057 7.311206296051867 14.064662739159976 0 0 0
3794 1 14.33780771830133 7.119702348109416 14.586867877306078 0 0 0
3797 1 15.549196501070838 7.060334924310723 15.039108972274219 0 0 0
3399 1 15.817932297337938 5.96196088387775 14.96451814982854 0 0 0
3798 1 16.13569132021313 6.65096563738421 14.108754490813133 0 0 0
3403 1 1.1772251350924223 8.60851979190772 13.72263536021067 0 0 0
3801 1 0.3062773794029425 8.180222666443251 14.3326524176028 0 0 0
3407 1 2.325430428739102 8.453138355031001 13.540891882473357 0 0 0
3805 1 1.4561339579971735 8.511021010265631 14.944035196759861 0 0 0
3411 1 3.8381552420505387 8.614277305373706 14.83816397944623 0 0 0
3809 1 2.2514111732890654 8.999609820144528 14.391754647498884 0 0 0
3415 1 5.921346809258399 8.338658439305124 14.227251514785353 0 0 0
3813 1 4.666408252766289 8.181696322274979 15.60466240792777 0 0 0
3419 1 7.216944613304519 8.792682908130848 14.505200286180706 0 0 0
3817 1 6.738178763696121 8.273874648505904 15.185022426217314 0 0 0
3821 1 8.13016519939646 8.678422947659975 14.998095144608566 0 0 0
3423 1 9.376939351364676 8.330817827134505 14.320389214548998 0 0 0
3825 1 10.293115469365734 8.502497595190139 15.000500040224093 0 0 0
3427 1 11.363364670110974 9.481170806667052 14.277596524868727 0 0 0
3829 1 11.35840517874317 8.564618287240709 15.286007141661932 0 0 0
3431 1 12.06681021613925 8.715206905435927 14.403992770105507 0 0 0
3833 1 13.826963954980199 7.887474159314999 15.240879308296057 0 0 0
3435 1 14.167626441243103 8.169594458785232 14.304198739707815 0 0 0
3837 1 15.255207674944852 8.196801213709143 14.747369349915195 0 0 0
3439 1 16.269399872611388 8.812736871105551 14.467238426916602 0 0 0
3404 1 16.70971784771258 9.99175330479598 14.198682375022731 -1 0 0
3443 1 0.8779694238322655 10.491054446536937 14.441920872943749 0 0 0
3802 1 0.7657734254772081 9.387692333701 14.363114646249665 0 0 0
3841 1 0.3347935769755017 9.835277882980776 15.290262730505976 0 0 0
3408 1 1.7533640993534063 9.864649209064474 14.450104952716693 0 0 0
3447 1 1.9243683580142168 9.466927823308218 13.400232113517138 0 0 0
3806 1 2.715571330503191 9.916376898951054 13.889804306669708 0 0 0
3845 1 1.3365324207888365 9.894156139746636 15.738211751204954 0 0 0
3412 1 3.4281881217524495 8.852299512295003 13.692618403971228 0 0 0
3451 1 4.30371462402514 9.478091028147526 14.177992951682652 0 0 0
3810 1 3.2094577665667776 9.404150800728658 14.682172299654763 0 0 0
3849 1 2.7199326434104556 10.632615335638443 14.86099940209637 0 0 0
3416 1 4.805962354021386 8.65569191105364 14.583487417066026 0 0 0
3455 1 5.533864522146944 9.533850191170448 14.460383896766727 0 0 0
3814 1 5.938172767778257 8.878130159894097 15.449895175679774 0 0 0
3853 1 4.7019481599435675 9.241452894495975 15.452320835502531 0 0 0
3420 1 6.540813165220292 9.747362421556014 14.829165590332037 0 0 0
3459 1 7.168396627578277 10.367412541906186 14.36284508978888 0 0 0
3818 1 7.639243573073118 9.821659362455797 15.032269076982587 0 0 0
3857 1 6.703898909681288 10.64782383640448 15.626519663495747 0 0 0
3424 1 8.2793726858522 9.395675025993866 13.79961892234212 0 0 0
3861 1 8.549089915483009 10.552814914662541 15.303166624630908 0 0 0
3428 1 10.225765881291402 9.32746276904408 14.216324430375666 0 0 0
3463 1 8.835018032352624 10.37193703880502 13.66219665116824 0 0 0
3822 1 8.74834142151501 9.467765790569771 14.726453967649208 0 0 0
3865 1 9.566929459557016 10.118270749777334 14.64550882717034 0 0 0
3432 1 12.469904196601687 9.646000213940011 14.546287479203551 0 0 0
3467 1 10.73419645817972 10.368318485281128 14.55675587731895 0 0 0
3826 1 10.52917925888507 9.57914659944068 15.176923559347975 0 0 0
3869 1 11.604860812669006 9.639568415149125 15.271065574719197 0 0 0
3436 1 13.322756597486098 8.753076086105455 13.936261768667762 0 0 0
3471 1 13.294152998923002 10.658443594078651 14.316440756730746 0 0 0
3830 1 12.97471586797715 8.731083372096078 15.021832355179127 0 0 0
3873 1 13.246810787035912 9.72808310290079 15.287794228469597 0 0 0
3440 1 15.111171193913702 9.185392154073481 14.266973812185695 0 0 0
3475 1 13.878891230215471 9.828757909340265 14.4351477562878 0 0 0
3834 1 14.230018980297045 9.071407360476863 15.010921942565934 0 0 0
3877 1 15.81078089409789 8.384123616968276 15.779383165287118 0 0 0
3479 1 15.544067481190543 10.240320085085374 14.418432067315209 0 0 0
3838 1 16.792891283286323 8.750092437161765 15.37690501523273 0 0 0
3444 1 16.613071617068723 11.01105773885502 14.830619497145314 -1 0 0
3483 1 0.5201822983990393 12.046954634714073 14.796955455470755 0 0 0
3842 1 0.6162093420437832 10.762662199301193 15.564609767393312 0 0 0
3881 1 16.379680346984937 11.30606148083154 15.751630504784396 -1 0 0
3448 1 1.694416757823334 10.931359498824015 15.372435670585661 0 0 0
3487 1 2.230577691768303 13.308887973544577 15.010373615661347 0 0 0
3846 1 3.179526953305743 11.00164270650703 15.78518466799381 0 0 0
3885 1 1.7998390022246713 12.15170820162714 15.070593021320676 0 0 0
3452 1 3.5507488610217957 11.384121220304884 14.639380520318864 0 0 0
3491 1 4.386147130307539 11.529924534631428 13.959688374966456 0 0 0
3850 1 4.0456460871691 10.432450450504653 14.859090921434476 0 0 0
3889 1 3.762623664931021 12.67902360971357 15.774171263649238 0 0 0
3456 1 4.874386855247608 10.611156039042918 13.985881943353919 0 0 0
3495 1 5.831066856965103 11.508542720393349 13.918547138248627 0 0 0
3854 1 5.645666880448604 10.57295375967662 14.891024586414698 0 0 0
3893 1 5.342974705007194 12.195440949315808 14.742479610615106 0 0 0
3460 1 6.073584370541395 10.468921731915021 13.906719033382139 0 0 0
3499 1 7.765286253433288 12.161325302358442 13.770750155064617 0 0 0
3858 1 7.616677928063642 11.232144342572395 14.712909053454359 0 0 0
3897 1 6.336042790127448 12.405718730817334 14.472085759545612 0 0 0
3464 1 8.58214200119581 11.461320514510277 13.78093536189785 0 0 0
3901 1 7.380597093671307 12.294589001744024 14.798001393200511 0 0 0
3468 1 10.605320130458752 11.306455384519488 14.085909169639617 0 0 0
3503 1 8.708504713672347 12.505055124402311 13.644212821021314 0 0 0
3862 1 8.305917974829836 11.525678317517134 15.545065779258298 0 0 0
3905 1 9.213977414221839 11.11205187267561 14.712134300036517 0 0 0
3472 1 11.995504488351642 10.54149959590384 14.746904677413752 0 0 0
3507 1 10.76410668876482 12.807746234739517 13.875988406722625 0 0 0
3866 1 10.268094618912087 11.267076394473461 15.110916619745788 0 0 0
3909 1 11.784548030285208 11.646870907295277 15.08499597770138 0 0 0
3476 1 13.90523074578348 11.567293362553368 14.121857844852435 0 0 0
3511 1 12.575249862042389 11.46990997630282 14.349985348602935 0 0 0
3870 1 12.84738734775148 11.210932017901747 15.330878173657469 0 0 0
3913 1 13.534599782071776 11.980406290715564 15.171637602664255 0 0 0
3480 1 14.668215929757471 10.758055262143 14.316960565718725 0 0 0
3515 1 14.484238979778894 11.416893017802524 15.248357720289876 0 0 0
3874 1 13.941555279328963 10.67730548081443 15.7558414875408 0 0 0
3917 1 14.704949365503468 10.084043467834151 15.063600430916646 0 0 0
3519 1 15.441339054943038 11.38038733335067 14.758368342252053 0 0 0
3878 1 16.105032243604885 10.15452612834073 15.525776499375961 0 0 0
3484 1 16.28652428525225 12.247302695629806 14.764698336065852 -1 0 0
3523 1 16.773198250827274 13.114180573642034 15.217642843948052 -1 0 0
3882 1 16.742339832132906 12.322349800502586 15.817354438337361 -1 0 0
3921 1 16.002571983996067 14.038605265267297 15.562546017930972 -1 0 0
3488 1 1.355662781356227 12.519269175310255 14.257239592450723 0 0 0
3527 1 2.7357612542532475 14.182349391678516 14.508239577116576 0 0 0
3886 1 3.0282627341972943 12.055182832576223 15.270194490119337 0 0 0
3925 1 1.103217103818142 13.302594296387996 14.97460353992279 0 0 0
3492 1 3.5888820741570706 13.22159811008337 13.701476602821932 0 0 0
3531 1 3.760050554812548 13.891465701858277 14.529593408143677 0 0 0
3890 1 4.177584188075309 12.498926566288615 14.601075454848589 0 0 0
3929 1 3.1899204839074837 13.014092081343826 14.71323235625491 0 0 0
3496 1 5.562713633376785 12.533427564608775 13.666440593189172 0 0 0
3535 1 5.603786598866878 13.562345847692292 14.167135206532496 0 0 0
3894 1 5.752321807128417 13.110040587692486 15.230934184600956 0 0 0
3933 1 4.72742356744846 13.553900551554083 15.019127639961011 0 0 0
3500 1 6.660755185356895 13.284684758449206 14.74750367076641 0 0 0
3539 1 7.095605330648771 13.134040770989362 13.638544337807657 0 0 0
3898 1 6.954150762945862 13.301289094508919 15.710661078759301 0 0 0
3937 1 6.72761560008721 14.368065762934894 14.74715082654227 0 0 0
3504 1 8.803857282138754 13.137823001004993 12.776993678710506 0 0 0
3941 1 7.959335212228075 13.010258152702075 14.389676293640242 0 0 0
3508 1 9.8509033645371 13.268790434854356 14.654139045626533 0 0 0
3543 1 8.82601832218853 13.633296694692413 14.024020821745827 0 0 0
3902 1 9.038472047760415 12.778267561904451 14.906534906865643 0 0 0
3945 1 10.880930327759557 13.502756200868511 14.985808334856516 0 0 0
3512 1 11.641996181263954 12.642615860581657 14.94732227087575 0 0 0
3547 1 11.366354993664823 14.415867075140829 14.131077124105284 0 0 0
3906 1 10.529003584338499 12.536803987245982 15.064564115108695 0 0 0
3949 1 11.097761121073932 12.751233800363922 16.38022048248831 0 0 0
3516 1 14.020918039089262 12.76456233451904 14.636172595614687 0 0 0
3551 1 11.87435333870042 13.678209017832026 14.701293910188037 0 0 0
3910 1 12.705927309803196 12.830068272811516 14.87593048715625 0 0 0
3953 1 13.085070870932672 13.873250073428203 14.904522556445428 0 0 0
3520 1 15.188131567947538 12.341083597717171 14.477597015285102 0 0 0
3555 1 13.892833295073633 13.801594225832742 14.234773292452704 0 0 0
3914 1 15.224205822193303 12.18408305501412 15.644037751541832 0 0 0
3957 1 15.857793071720188 12.996374812618232 15.586680554979653 0 0 0
3559 1 16.239410645690352 14.705191590074271 14.674498043892665 0 0 0
3918 1 15.090551075389884 10.692241002226194 15.866562911061104 0 0 0
3524 1 15.36014408489625 15.418574960996668 14.396719065846206 -1 0 0
3563 1 1.0144681354770437 14.884699335653668 14.195201941594995 0 0 0
3922 1 0.28273287949948256 14.163365119676019 15.511267882953458 0 0 0
3961 1 0.14242630499228093 15.23513641875992 15.197708266795566 0 0 0
3528 1 1.5806309496920035 14.191312277840021 14.801041060607997 0 0 0
3567 1 2.7483815101955558 15.53512584209174 14.626574710675591 0 0 0
3926 1 2.3293682791871753 14.750902414663862 15.299077833112001 0 0 0
3965 1 1.5802892442739056 15.792320293677697 14.853585708578452 0 0 0
3532 1 3.4359113827003136 14.442045697593116 13.590269861548213 0 0 0
3571 1 3.8486763244996873 15.27109027023881 14.194312675734091 0 0 0
3930 1 3.5232883762876295 14.713972684345647 15.093675507219125 0 0 0
3969 1 3.6361020485589624 15.698494041287422 15.101696327063186 0 0 0
3536 1 4.816304660556588 14.452704310636921 14.394611332649038 0 0 0
3575 1 5.783294716081883 14.754552678318769 14.122584387018723 0 0 0
3934 1 5.5305253373538426 14.194611561946182 15.097523275305972 0 0 0
3973 1 4.5171712384497775 15.137050482975065 15.168698483704903 0 0 0
3540 1 6.536237898724633 14.032060348070665 13.678723963733171 0 0 0
3579 1 7.476089006800219 15.350260688872755 13.643913146509206 0 0 0
3938 1 7.759310149837062 14.875735621909048 15.051763140559826 0 0 0
3977 1 6.860685572692342 15.452863110911059 14.66447422129831 0 0 0
3544 1 7.545987596627836 14.290091115418397 14.074794808579213 0 0 0
3981 1 8.537180715714305 15.090822954804437 14.382241807019254 0 0 0
3548 1 9.723797913144509 13.79914033882672 15.757872559316297 0 0 0
3583 1 9.426216842389602 14.577959826443163 14.559442633497547 0 0 0
3942 1 8.68782056410283 13.861342852568185 15.254490605740319 0 0 0
3985 1 9.842813256188704 14.780962503447272 15.622944012136182 0 0 0
3552 1 12.414734450933254 14.57480977890784 14.569204371321392 0 0 0
3587 1 11.210221220262605 15.435535372837156 14.073599982515546 0 0 0
3946 1 11.731522118813356 14.370433689154742 15.58137826110397 0 0 0
3989 1 12.0071597865797 15.53134151789925 14.886438926959535 0 0 0
3556 1 14.140907911611416 15.679812126539085 13.934932998700164 0 0 0
3591 1 12.894057376679333 15.77720700031055 14.071831866753834 0 0 0
3950 1 13.349883172189113 14.742523659635268 14.05424777586953 0 0 0
3993 1 13.653316212666061 15.59667692548913 15.923105734229194 0 0 0
3560 1 14.971963420792443 13.88221588142618 15.405282433646486 0 0 0
3595 1 14.495446142994217 14.729503517563005 14.402768084373262 0 0 0
3954 1 13.749235201580465 14.652681153106409 15.469515420630367 0 0 0
3997 1 14.869917476870134 15.0364600617947 15.524414168113266 0 0 0
3599 1 14.438491278847343 15.806651718042472 15.048195150710223 0 0 0
3958 1 15.842009544280291 15.168350820530785 15.464807178513315 0 0 0
3564 1 0.07387215469488935 15.486061620823719 14.167523836629366 0 0 0
3962 1 0.5419751394587413 16.219744286695438 15.361308684595913 0 0 0
3568 1 0.813944452165869 16.025685294041583 14.000758229377277 0 0 0
3966 1 2.4398247863082836 16.544319588290122 14.948825598476168 0 0 0
3572 1 3.1051347195818053 16.404884624541904 14.08595650277815 0 0 0
3970 1 4.459821913036356 16.242130690940265 15.309395860505859 0 0 0
3576 1 4.777512187120094 15.824951829819366 14.416345916434638 0 0 0
3974 1 5.825601026467534 15.682667363251577 14.806712514858264 0 0 0
3580 1 6.8149206333890575 16.08292696595907 13.786252326485661 0 0 0
3978 1 7.745220002160994 16.059580179251483 14.748301922556774 0 0 0
3584 1 8.439268009280282 16.07452057002943 13.810757726382096 0 0 0
3588 1 10.239290833499444 15.415286972384177 14.607695234214658 0 0 0
3982 1 9.222886655315616 15.941297259153611 14.52761916824387 0 0 0
3592 1 11.159752385087339 16.47630033457451 13.472776627839702 0 0 0
3986 1 10.989785359832158 14.977501744725224 15.804395715761462 0 0 0
3596 1 12.938648848119596 0.2885333055370558 14.273445254403512 0 1 0
3990 1 12.274034714563497 0.0560813122753732 15.002957618125066 0 1 0
3600 1 14.531318984534234 16.595598638967584 14.142019569617995 0 0 0
3994 1 14.214606040974916 0.1338336843144284 15.254345573368361 0 1 0
3998 1 15.32503067575167 16.006725965030242 15.817337742846973 0 0 0
3603 1 0.8979486275381409 0.5468047095715027 15.761940221731695 0 0 0
3604 1 0.07284112728178951 0.5678775021707853 15.068504497675466 0 0 0
3607 1 2.452352746530092 0.39981357604991863 15.834442504630083 0 0 0
3608 1 1.6968252542003828 1.2512553567337283 15.792838295789021 0 0 0
3611 1 4.164588256730121 0.1792816308028406 16.13248803393606 0 0 0
3612 1 3.3208461090525137 0.9246046181980718 15.899516428342986 0 0 0
3615 1 6.109593064526633 16.310840808319927 15.776168487811427 0 -1 0
3616 1 5.231453195528171 0.6895216423858664 15.580138133645063 0 0 0
3619 1 7.635240049665969 16.678076319216597 15.680110943126644 0 -1 0
3620 1 6.570377368389419 0.4964313892780437 15.935662297840098 0 0 0
3624 1 8.298150760045635 0.7716962576954207 15.313423881416101 0 0 0
3623 1 9.502419872306904 0.27448988512211747 15.512561777097751 0 0 0
3628 1 10.307385053658303 0.3788210617780454 16.232639332648482 0 0 0
3627 1 10.55236270104055 16.11672197636005 15.696827980075179 0 -1 0
3632 1 11.571705358490197 16.149287470452503 15.898325410733076 0 -1 0
3631 1 12.313690040075679 0.6965108030696975 15.938272430516909 0 0 0
3636 1 13.012164745924798 1.4187652247732256 16.256047579960565 0 0 0
3635 1 13.201908391778753 0.33464373197226976 15.638206192049113 0 0 0
3640 1 14.801906197652851 1.1194430160067859 14.928901041155592 0 0 0
3639 1 16.224604952748376 16.760686305532907 15.691371605289648 0 -1 0
3643 1 1.1611642233939976 2.4549414192047503 15.173005575919445 0 0 0
3644 1 15.857576358773056 1.8015606361323893 16.23003821223768 -1 0 0
3647 1 2.5320778369339414 1.8221788659873148 15.757574391146258 0 0 0
3648 1 1.9516798218231823 2.818219124823329 15.918248987275067 0 0 0
3651 1 4.239618448427626 1.781966360066095 15.915863343265844 0 0 0
3652 1 3.1486619640290203 2.6861346818084884 15.850553468369595 0 0 0
3655 1 5.777231751097095 1.7029652744773929 16.100212808597956 0 0 0
3656 1 5.119756991314333 2.3979370272191165 15.798328285634803 0 0 0
3659 1 7.985137684115215 1.663125360585779 16.02026644295952 0 0 0
3660 1 7.0272417614678995 2.647121537196181 16.005769144519878 0 0 0
3664 1 9.242755267086103 3.3557077143756677 15.830330955586998 0 0 0
3663 1 8.946851950567929 2.213519682918358 15.92286855164995 0 0 0
3668 1 10.27514330584012 2.921215808110599 16.17996142561637 0 0 0
3667 1 11.345121109225548 0.6926108447189373 16.303834058175635 0 0 0
3672 1 11.445537921388897 2.7069622780913973 16.056067021271545 0 0 0
3671 1 11.108275533944097 1.7898222515201636 16.459822576913208 0 0 0
3676 1 12.6662386321585 2.594326878696754 16.173658655406893 0 0 0
3675 1 14.081132398160488 0.6762299870829633 16.41423094907698 0 0 0
3680 1 14.864697742446822 1.384808984441188 16.018497958479713 0 0 0
3679 1 0.43419324543489773 1.6195356098786329 15.53429702189511 1 0 0
3683 1 0.803642466263566 3.23558120676169 15.999969869787547 0 0 0
3684 1 0.13571792297309287 4.239207769484056 15.998286805981325 0 0 0
3687 1 2.5478869211562167 3.712133057498701 15.709340967206499 0 0 0
3688 1 1.39662509394209 4.095525392536259 15.585053772932403 0 0 0
3691 1 4.099993226353006 3.2306909979815 15.781456899065738 0 0 0
3692 1 3.4826458991336438 4.3000862769281865 15.980252613622316 0 0 0
3695 1 5.881434981637573 3.264491762306983 15.920333850664429 0 0 0
3696 1 5.167708387270959 4.114598127717563 15.925794097652757 0 0 0
3699 1 7.817202971699499 3.53543039118512 15.89812304406152 0 0 0
3700 1 6.648569940899548 4.135587842327013 15.91197019737624 0 0 0
3704 1 8.623611554691273 4.32618165186019 16.167078284116045 0 0 0
3703 1 9.015933367745431 2.3196520221543926 0.1586520494308349 0 0 1
3708 1 9.84106614065346 4.20367981508293 15.841181228962066 0 0 0
3707 1 10.938175079718818 3.66737627152994 16.24053027330975 0 0 0
3712 1 11.47605941380227 4.832050203043662 16.269143931976064 0 0 0
3711 1 11.957221131216992 3.56075282406282 16.38298486458622 0 0 0
3716 1 12.749172337477445 4.37279704493208 16.418554967974163 0 0 0
3715 1 14.029178289516695 1.7620643763995816 16.380224619004274 0 0 0
3720 1 14.227488544129146 4.424448027843338 15.253237742432777 0 0 0
3719 1 14.809505110353125 2.5207085181867015 16.13128073944998 0 0 0
3723 1 1.258867621520366 5.160107853173223 15.732551168702027 0 0 0
3724 1 16.485843859248796 5.9313757283443245 15.741116585771753 -1 0 0
3727 1 2.2290363942138485 4.7534652090501845 15.6950582477069 0 0 0
3728 1 1.9759039892826595 6.207792163081951 15.85159804925855 0 0 0
3731 1 4.716860473617329 5.1193639472507915 16.11869302950617 0 0 0
3732 1 3.142459626548936 5.773967520657274 15.618174047766008 0 0 0
3735 1 5.889354405791542 5.036115800258193 15.935318821590032 0 0 0
3736 1 5.228395514542846 5.976562718112495 15.920411647098643 0 0 0
3739 1 7.644463917836667 4.671803653112049 16.095089073197816 0 0 0
3740 1 6.828805959982331 5.723962186377141 15.952896078408669 0 0 0
3744 1 8.319006589339045 5.734264695513979 16.081603969386858 0 0 0
3743 1 9.261177420010391 5.165870261884276 15.96885472422375 0 0 0
3748 1 9.905572053745777 6.139723003373577 15.968970639122617 0 0 0
3747 1 10.30179204945552 5.06278299803554 16.152432557752643 0 0 0
3752 1 11.830379977253171 5.811393239987877 15.848843626777052 0 0 0
3751 1 12.180963024145074 5.363026874132221 0.2941598879356123 0 0 1
3756 1 12.983259047881198 6.0862133031387895 15.976996926525977 0 0 0
3755 1 13.996766704415478 5.27333937589978 16.779391136445717 0 0 0
3760 1 14.901568311026232 4.756317418357682 16.050554547806048 0 0 0
3759 1 16.14386013995139 4.942982787301417 15.37977292553901 0 0 0
3763 1 1.022833417421877 6.736618500224283 15.550116766704377 0 0 0
3764 1 0.7185278668236876 7.897774854182751 15.720209691995073 0 0 0
3767 1 2.634169223261171 7.003817461917072 15.39420884717139 0 0 0
3768 1 2.038833437487489 7.748361039650089 14.221418191780584 0 0 0
3771 1 4.092252436882597 6.002018009212103 16.25764364939555 0 0 0
3772 1 3.6356758687280637 6.714795739610233 15.65492627088437 0 0 0
3775 1 5.899127869500348 6.749895922560251 15.703980594581132 0 0 0
3776 1 5.0515829760903195 7.005714659855566 16.30205134469054 0 0 0
3779 1 7.595615442856974 6.534061594427642 15.941918564569642 0 0 0
3780 1 6.806073542658192 7.2787678069647335 15.980613844949046 0 0 0
3784 1 8.501148562796606 7.977141327247434 15.621714665310925 0 0 0
3783 1 8.909745845316145 6.562388490327904 16.13755977862982 0 0 0
3788 1 9.768851408982083 7.876779368225195 15.633587915835658 0 0 0
3787 1 10.858149978716112 6.582387891794763 16.12069563765521 0 0 0
3792 1 11.727608506607748 7.6173095188019895 16.610952166325347 0 0 0
3791 1 11.973455749183827 7.074864997240136 15.723650285188008 0 0 0
3796 1 12.843722856511913 7.486491398678028 15.52394669465234 0 0 0
3795 1 13.917419570625725 6.913088436747104 15.59120950265608 0 0 0
3800 1 14.81973581914983 7.647845209661084 15.439257016435484 0 0 0
3799 1 16.64935735441506 7.034432107530702 15.725285617237727 0 0 0
3803 1 1.7787794578019318 7.5854959959400015 15.571045041894754 0 0 0
3807 1 2.9839925499801465 7.8961836254986695 14.86588659211332 0 0 0
3811 1 3.5561426733662542 7.872763983999035 15.955552890054614 0 0 0
3815 1 5.733153476241398 7.671534895931325 16.281533509052128 0 0 0
3819 1 7.298699284282708 8.295447192670697 16.170790025056522 0 0 0
3823 1 9.309883824716714 8.86160782673017 15.319202622511005 0 0 0
3827 1 10.624812448197007 8.467501874041695 15.955806435054232 0 0 0
3831 1 12.221041840208215 9.026738311781623 16.04625245835244 0 0 0
3835 1 14.308293205676703 7.570185278219717 16.363920105459187 0 0 0
3839 1 16.33072711484287 7.863109014397918 15.12377538692281 0 0 0
3804 1 16.63585746303473 8.39686432002077 16.483459912180788 -1 0 0
3843 1 0.7679695101838907 9.024441919425614 16.01619457806698 0 0 0
3808 1 2.306084667060219 9.481205253911558 15.335713038185773 0 0 0
3847 1 3.227622998311715 9.754896531484638 15.796687896176115 0 0 0
3812 1 2.8294076394969823 8.627799420209524 15.470541811786427 0 0 0
3851 1 3.9992137176872684 10.318426928117802 16.145047864974817 0 0 0
3816 1 5.286748997360344 8.838627749254535 16.268419845796522 0 0 0
3855 1 5.845208205181859 9.836216851031548 15.887366768077774 0 0 0
3820 1 6.845257729473764 9.469878602008844 15.796199709151086 0 0 0
3859 1 7.694019193422921 10.434198432736908 15.996208642896617 0 0 0
3824 1 8.20877373364753 9.205880012893786 15.903449043146413 0 0 0
3828 1 9.985473949975928 9.333669007507579 16.12590895429918 0 0 0
3863 1 9.122539920555699 9.799350557261702 15.820853158935273 0 0 0
3832 1 11.065409163341492 9.45346878748013 16.094993036809466 0 0 0
3867 1 10.444916209573481 10.383361346729178 16.20502422005507 0 0 0
3836 1 13.547354903821013 8.992253817322172 15.998228070099366 0 0 0
3871 1 12.315989470097428 10.039540478243257 15.870291139846465 0 0 0
3840 1 14.717454866000624 8.592182044352983 15.802268582966434 0 0 0
3875 1 14.430431990638503 9.709443869775267 16.082565297394822 0 0 0
3879 1 16.449350326244293 9.351193495156243 16.168021980606113 0 0 0
3844 1 0.12558778857110003 10.290132510680872 16.282383769556148 0 0 0
3883 1 1.038309570668468 12.21836694920964 15.835574726816604 0 0 0
3848 1 2.339142814323255 10.337676838840279 16.075741372509782 0 0 0
3887 1 2.2744316108544944 11.637411162506742 16.001232325115517 0 0 0
3852 1 4.187861620519209 11.467239170403134 16.025096987326574 0 0 0
3891 1 4.714361567797097 11.282385046987944 14.961336899754754 0 0 0
3856 1 5.212591772429481 10.775662581982074 15.767306689189532 0 0 0
3895 1 5.748010711175761 11.576752740372283 15.591126728127703 0 0 0
3860 1 6.498814054861769 11.377527062029479 14.926344908517773 0 0 0
3899 1 7.201774339501581 11.794058739605651 15.755973136274502 0 0 0
3864 1 8.473665156674693 11.007402029548436 16.391808190104456 0 0 0
3868 1 9.346289278047172 10.903176088951499 15.775091613671139 0 0 0
3903 1 8.412817673599543 12.01710775845679 14.654756417746354 0 0 0
3872 1 11.318606556547408 10.685830205425702 15.556807470602784 0 0 0
3907 1 10.181336167367425 11.304731740550253 16.44005558005303 0 0 0
3876 1 13.25177528941672 10.760085350998345 16.735878872222457 0 0 0
3911 1 12.069422975861388 12.281850859256522 15.992740619271796 0 0 0
3880 1 14.474182264129281 10.543260406961755 16.717045475099955 0 0 0
3915 1 14.012095432193565 11.52621247376803 16.396902464315342 0 0 0
3919 1 16.088963409156403 11.03698281167295 16.782286472714095 0 0 0
3884 1 16.006701853065493 12.230401503656381 16.64657975684507 -1 0 0
3923 1 0.2778402320142021 13.338942177098938 16.24967927663414 0 0 0
3888 1 1.4024673882698941 13.122787275766225 16.11613529390181 0 0 0
3927 1 2.9468365710702145 13.849230596380854 15.58814906664275 0 0 0
3892 1 2.474108576885806 12.757863186341035 15.959365481568712 0 0 0
3931 1 3.9889687734931876 13.888735847117875 15.592741939499248 0 0 0
3896 1 4.833456116400538 12.626661881295552 15.71244346778388 0 0 0
3935 1 6.223615023333403 13.971824940003364 15.823657339567283 0 0 0
3900 1 6.421113842037708 12.426129090605075 15.622273297226103 0 0 0
3939 1 7.627705804702995 13.834475453572086 15.023829470288518 0 0 0
3904 1 8.058649001062726 12.24483720908829 16.316794368893618 0 0 0
3908 1 9.55664500652529 11.89392901184117 15.53424702731185 0 0 0
3943 1 7.895358091714659 12.91192117679791 15.519980553619385 0 0 0
3912 1 11.039203060327058 11.716935190447531 16.00002043913741 0 0 0
3947 1 10.710474484471149 13.682519251562933 15.974874835652056 0 0 0
3916 1 14.00353276767059 13.44114504199318 15.3413316738445 0 0 0
3951 1 12.17206307059822 13.3899221111255 15.738422904314081 0 0 0
3920 1 14.612452145819201 12.315755731407911 0.3099904802428874 0 0 1
3955 1 14.235766757722674 13.463468683326443 16.547421728639762 0 0 0
3959 1 15.306199190694953 13.37058229522536 16.458268419240085 0 0 0
3924 1 16.54732813564547 14.780896704103007 16.231651818149746 -1 0 0
3963 1 0.46855710194864714 15.483573969987921 16.204070905135108 0 0 0
3928 1 1.3466540994237148 15.063924840292705 15.55039621444893 0 0 0
3967 1 2.5269475555632828 15.848574567561027 15.598658088009302 0 0 0
3932 1 3.1736397380220045 15.048825430920154 15.989714097881071 0 0 0
3971 1 4.126125935143554 15.265213991774349 16.090743955797087 0 0 0
3936 1 5.066313983736888 14.64044586795513 15.999069683853126 0 0 0
3975 1 6.157642264390135 15.113651634617387 15.497279385738025 0 0 0
3940 1 7.057766465676724 14.424745000711106 15.836086790167059 0 0 0
3979 1 7.836899586425627 15.68589176322019 16.35902858711122 0 0 0
3944 1 8.51444169727678 14.758904432078456 15.942636944943786 0 0 0
3948 1 8.847993498435793 12.926184897034242 16.03270988148059 0 0 0
3983 1 8.454193166999557 15.80602958367647 15.365432739258782 0 0 0
3952 1 12.28088364495348 15.103844693743937 15.985232991863331 0 0 0
3987 1 11.459906028382102 15.587276598933329 0.10111573094214656 0 0 1
3956 1 13.018026463300766 15.271019927611954 15.1624798079139 0 0 0
3991 1 12.651549072467516 16.156311375685444 15.686785042886102 0 0 0
3960 1 15.331620502643954 14.425039066040231 16.315243344119818 0 0 0
3995 1 14.323599054984097 14.623016732426493 16.494782982685667 0 0 0
3999 1 15.228849256189903 15.358611795239076 16.607226647073922 0 0 0
3964 1 16.257162529069745 15.775044997531708 16.248120599759005 -1 0 0
3968 1 1.5941712761430102 16.540233302380926 15.551417308296456 0 0 0
3972 1 3.4281882463109308 16.19782794299279 15.976527900730801 0 0 0
3976 1 5.259471076781971 15.637127792082888 15.731801699493166 0 0 0
3980 1 7.1011085559423055 15.782368789729205 15.665805920803203 0 0 0
3984 1 8.63183919850542 16.75518498010579 16.332426258059634 0 0 0
3988 1 9.524196460856507 15.994910351881035 15.512136711128626 0 0 0
3992 1 12.007124423565253 16.51931191597606 0.21180886804901866 0 0 1
3996 1 13.380257453481095 16.39314161063109 16.53927598201235 0 0 0
4000 1 14.38826601289995 16.463453931048026 16.14652393824464 0 0 0

Velocities

1 0.7742276335753402 0.3343659615157388 -0.8376940614383258
2 0.5762558821261079 -0.642392359624492 0.8319896498250153
3 -1.3259772117929403 -0.4773691880305039 0.725559594016492
4 -0.0036630945128163094 -0.5252799193811655 -0.1049185780198337
5 0.7966650165863165 -1.4487874852581666 0.5462682457712541
6 -0.6104584495654684 -0.39017668745192735 -0.2606361943604696
7 0.504241248535304 -0.1240173442324142 -0.9670256097073056
8 0.5596245485922884 -0.6014445310295143 -0.2866927849533686
9 0.5474716229732814 0.05695148388440714 0.5224118033486598
10 0.6066369419851749 -0.7655946955730374 0.3068406257288187
11 -0.3434132203158376 0.6297699231578016 0.6188260189092162
12 -0.9564815372683874 -0.6338864911536319 0.7055430884266679
13 -0.3624426905844499 0.7769413821233534 -0.28431279934988973
14 -0.10263174023398483 0.5443081108499042 1.0051070305157228
15 -1.0786739312931035 -0.13765278205073112 0.47614566098840044
16 0.5112878028074178 -0.8963545098317602 0.07286745413829004
17 0.6550776303575183 0.6439297854809289 -0.021957790673514888
18 -0.7221069926939695 1.113681420475984 -1.331274208344029
19 -0.3099106640594904 0.6770030424059934 -1.206867882426213
20 0.2901191989544305 -0.03957995907145461 0.05620364807032395
21 2.1895657834757984 0.035845708417702515 0.26207698344813085
24 -1.2773402707714352 0.516855717098119 -0.29570545125934466
22 1.1304335389332136 1.756904426347512 -0.8547851553345118
23 0.306711715226873 -1.2913641669404032 -0.3475618766506322
25 1.4129895540753719 -0.7826246813365765 -0.7783929056055795
28 -0.019528612441066084 0.6429133863454637 0.7558285609236934
26 -0.7855447784712598 -0.3564651299842349 -1.430378253394102
27 0.3315274285486262 1.4072421953655059 -1.0064456238795527
29 1.9476455119695835 -0.7223254352399415 0.17332152186224098
32 0.35957644930460625 -0.29418397195736906 0.2617486750683765
30 1.7284675333082913 0.8216056655033247 -0.24332607248340404
31 -0.27406998705102914 -1.0158419735671453 0.19691547322387806
33 1.8841123863599298 -1.6111659318114935 -0.8263216641327537
36 0.8904190565711818 -0.31660498862554054 -0.08213325407028199
34 -0.8285458399795632 -1.3128005089053854 -1.261856862143781
35 -0.5311520234757118 -0.8218713632410296 -0.251248655348738
37 0.7474301292464489 -1.0480799758950847 -1.5237514355083437
40 -0.570120894630884 -1.2670092330613627 1.2380837345672477
38 0.6077764147325163 0.3888423744830685 0.3259484376034958
39 -0.4756378541793693 0.3276291419991646 -1.1421269000860852
41 0.6263245111554357 -1.248641310214494 0.8693118070725757
42 -0.011588505324083627 0.22376257227887958 0.04263072393418465
43 1.3124402788281109 -0.9824730006226501 1.340726004870893
44 1.163823526843441 2.0426463762208327 -0.14888560066810536
45 2.131669231219158 -1.279062277349771 1.0756732397612987
46 -1.4658812426582086 0.2746343781134815 0.12994780825811775
47 0.9815888922540003 1.124288343882737 0.06330472558943308
48 -0.719300333084998 -0.9787237247790226 -0.48963345433711347
49 -0.8197702325477922 -0.13863031629281614 -0.7989958306513535
50 -0.1375658206050881 -0.7127380202522807 -0.09635406491183253
51 -1.1356836585599577 -0.42045273642241066 -0.444262040484655
52 0.3202800731725811 0.9781608574126671 0.3187617492624881
53 0.1425832054457765 0.48668724160480603 -0.5413401463616699
54 -0.8231084915473709 0.6414496555242902 -0.5909815847426924
55 -0.14431171207079152 0.3947290859098911 -0.3186985562125227
56 0.5121208877815531 0.0027660530010156573 -0.5028325109053199
57 0.48733504639057107 -0.5891050355579025 -1.5148434878870016
58 -0.2817536065297602 -0.8907813278844536 0.8361663994695179
59 -0.22956516519216114 -0.12104050442887457 0.49529504139687136
60 -1.7253984618725289 0.6017926485390575 -1.2234505348528242
61 -0.4446790379589091 0.4231422907456508 0.5199609602221503
64 -0.1557840574790832 0.26522116235021276 -0.9134266276184254
62 -1.823699670974276 -0.054090578185873324 -0.6318983011204481
63 -0.5079602865236736 -0.9378544075900818 -0.5302025785546675
65 0.11817522726643352 1.6282373869740188 -1.4324185055178902
68 -0.5193614819547283 0.6450615203197123 -0.17720828778541295
66 -0.11783390372410862 -1.7369379166827665 0.7749570190378461
67 -0.5795931054031151 -0.07463487537614148 -1.0630072191512006
69 -0.22943851757624037 -0.11716569399620541 -0.395880356045833
72 -0.9780032593747942 1.024912563817967 1.3924923811203185
70 -0.37393098088412036 -0.3088802157309837 0.5659024308333542
71 0.06817216998730391 -2.5247911321952876 0.4656978336214469
73 -1.8136750732682188 0.17950254797613002 2.184529152298483
76 0.1804789762612486 -1.9831281134545105 0.792620680320199
74 -1.4247600505266709 -0.5051733258351965 1.5909813546942642
75 0.7056692614819559 -1.1647461003645954 0.07821966342534219
77 0.7140730891935765 0.027639033761119394 -0.7126890251596104
80 -0.8857909390948931 -1.9161527209713556 0.5185503228143477
78 0.7957190482580823 -0.9780188826571344 0.22575441651196942
79 1.8107674312406858 -0.39905280121692777 -0.9039508708464867
81 -0.2609698733830871 0.018361046149684902 -0.37980980171298473
82 1.2935805424305487 -0.8351961503452315 1.315726871871281
83 -0.5338670184841238 -0.36512015908039364 0.06333977258306264
84 -0.9331536374870255 0.041033309608799445 0.0753802888698169
85 -1.0897103756570516 -0.4631551549633366 0.919716481273507
86 1.397512579291218 0.14361990499191643 -0.2708580975554065
87 -0.19267033303546166 0.4921789845012885 0.13025117480008994
88 -0.24008248425471757 1.0493102478700695 0.3731497839146468
89 -0.971156284501085 -1.899812751251951 0.4629719824413123
90 -1.6739895139753205 -1.324961725864924 -1.4734834329202628
91 -0.49309328262085783 -0.5383753071201378 0.6891971092440835
92 0.7075348120814634 -0.6078674869418194 1.1478874622829682
93 0.84680062648112 0.23672329043291243 -0.5754425200278922
94 0.8896773440443357 0.44618634477637903 -0.4597416017094914
95 -0.7571900373731029 -0.6115269294920368 -0.5599492419591662
96 0.3586124593986357 0.7411688177146439 1.1801058120666574
97 0.5233801489925642 -1.0027126864409126 -0.5849534136928595
98 0.3123767227618433 -0.2137436072994929 -0.5280154785379456
99 0.5769056796719794 -0.4769913059222344 0.62535685464369
100 -0.49063125530841245 0.6416295833039221 -1.5088368726761543
101 -0.838313642226397 1.0835506372519237 -1.1421426010789781
104 1.0369919675927377 -0.6636401708740961 -0.5061832958854918
102 -0.19657688501801032 1.643458342976997 0.10222928784195649
103 0.6254983064530097 -0.55485883465926 0.6134214514219752
105 0.15362891383274957 0.3071924775019168 -1.3991058244614636
108 -0.11761800256678072 0.4094296547870824 0.4607844548684638
106 -2.080404023184974 -0.459270075455988 0.6821374759301797
107 2.2881664518281295 -0.16739461866929867 -0.9985306586951667
109 -1.1933186236574824 -0.23562358393534685 0.8227299893897352
112 -0.6701607130416186 1.5998854423665891 -0.515337873872332
110 -1.3081514095750566 0.3671257225363309 0.9055154381250905
111 0.04692756168384231 0.1078512389118931 -0.3466811597926439
113 -1.5139488379031854 0.8094857759467872 0.20273518639257737
116 -0.22872269985837018 -1.1590392762488564 0.30679260103233236
114 -0.27529462060018084 -0.1544793866284525 -0.217940458409261
115 -1.0310146110677252 -0.5504122441628112 0.22804232019601145
117 -0.6510622918892189 -1.2515070288432064 -0.9562574102542076
120 0.6696022784395781 -0.32231717041635 -0.5527623785118285
118 0.49789525659744 0.24226208494787854 -0.4166708015681154
119 -0.4629799304505752 1.4596817045514836 0.8451933447019967
121 -0.10290291429760214 0.2758021071431693 -0.8364995898155807
122 0.11711788848590979 -1.5283218186805227 -1.1371697204200262
123 0.8206344980601208 -0.5282714685613984 0.5548292319262594
124 2.40338484687051 0.1961184825079855 -0.49621367101039743
125 0.4225392015130409 0.7251461272934931 0.6011323912174066
126 -0.7542127598436279 -0.584996987570479 0.8348894585883142
127 0.10230327100527632 0.7182507317111895 0.9632328258005051
128 -0.6987719849656114 -0.573981290892303 -0.39335894801200894
129 0.6693622925402042 0.6259382196274532 0.640737649492057
130 -0.5288348360738749 -0.39411200898185633 0.0876456681637145
131 -0.08966521146103287 -0.5709421257974626 -1.9157131678845796
132 -0.8676020036619176 0.23583213003582765 -0.18874750246594169
133 0.8825667955664045 0.3447576759240222 0.47263359205651256
134 1.026709203147786 -0.9481676649754559 -1.9497865673046662
135 0.7144377235874524 0.20134986297711532 0.38821980726354
136 0.7171047465642473 -0.7612016689438953 -0.3067044225860544
137 0.1811739850393351 -0.530662821551024 -1.3098330548148613
138 1.9478828547644345 -0.7381351950701454 1.5104794017968712
139 0.23468563375469906 -1.280094872664199 -0.19024632697615565
140 -1.3240664889218796 -0.8463622737359704 -0.31659639072625223
141 -2.251555194683175 0.40968942689842863 -0.042456859962879165
144 -0.7064497392651591 0.4818987449691761 -0.18335073822710046
142 -0.8665286690831122 -2.2552973941609045 0.9294604330584803
143 0.9248420210602327 -0.19425494940307514 0.12705774179576457
145 0.7551637351254984 -0.7960457150366602 0.7269358176244365
148 -1.9147692386757653 1.587239939775912 1.1086933049016872
146 0.73943722438482 0.9684514511253578 0.6116271581874071
147 -1.3051117560227306 -1.9751221362476294 0.16168989849058957
149 0.8308210220930108 0.3020244958777239 1.101082983640265
152 0.6087603174250885 -0.03034827576281999 0.7485353711156585
150 -0.6391786906939042 -0.28599810779789053 0.6653501546885839
151 0.22964631923394635 -0.5609495399514088 -0.8762774994374036
153 -0.01392335526718947 -1.904854884578063 -0.4475132869583192
156 -1.1195634082613402 -0.08674167716034588 0.5160752701706325
154 0.014553181351621668 -0.21419377224422334 0.2671812580922738
155 -0.10975957428501548 1.0557084727365418 -0.7837730112107187
157 -0.10876966418672522 -1.5298826565138939 1.4235212040219438
160 0.4990441409942891 -0.21158080630479756 -0.3506675547658188
158 -0.5401841139222634 -0.1252770979223538 -0.8995654780663298
159 0.14534838980908724 -0.3204563947999007 -1.7091506270606807
161 0.5471004369588912 -0.15842072863835222 -1.7467279047092361
162 -0.01156936540946418 -0.5409360339137611 0.9881171811807754
163 0.47090830026193853 -0.17018651450396782 -0.7277012507595791
164 1.3669067059493745 -0.5095628169126745 0.22333816009818847
165 -0.4929815479977029 0.045404345569917876 1.2274068713886432
166 -0.3847459434634215 0.8045459621020545 -0.24631403370834593
167 1.8332006876566334 -0.06472568682979088 0.36613828329378384
168 -0.13184880669312946 0.17656040198490447 0.40137048657844376
169 -0.45249550312863224 -0.411328094656905 -0.11825087472956437
170 -0.10093593750626428 -1.4912413273187388 -0.766116912167878
171 1.3845467143349661 1.5725384140203922 0.6656431767431816
172 1.2850709704887295 0.5442831026348371 -0.556099131800172
173 0.3499392494550261 1.5714456751402628 -0.5245621609610351
174 -0.9224638494614933 0.04721819692302473 0.3071707294265102
175 -1.0993403555516312 0.12370642896472374 -0.6429738019461071
176 -0.34592386952865073 0.4604305525910153 0.6944001609094597
177 -0.19579018963999106 0.29508594365175306 -0.4519244779072354
178 2.582262660020609 0.14182167326753867 -0.3847129340854487
179 -0.6336075101351037 -0.18810334544475324 0.5505377729410565
180 -0.44365750828119854 1.3005168486094625 1.6858840607367505
181 -1.4083363688941488 0.06103160969311678 1.3064995845513832
184 -0.729817290579231 0.048253414025965904 -0.5127767662216084
182 -0.17705711192031195 -0.7463039216292688 -0.7785807286287246
183 -0.7471399310924861 0.6189409557856154 -0.7150290121474937
185 0.272743722664846 -0.5602456600127034 0.3627746987800599
188 -0.02609343749180787 1.470872575768775 -0.015999263882505027
186 0.9541172991976379 -0.7937905334500833 0.15723379645227029
187 -0.11954308201571096 0.7211811895353346 -0.9301967478649069
189 -0.12447787858310316 -0.30744250258941513 -0.5806094675322659
192 0.8832173490387049 -0.6463964047195504 -0.0122905085971928
190 0.5761464644540084 -0.02225160260733927 -0.5152980244566899
191 -0.6166370362484637 0.775938076325184 -0.32418837167655934
193 0.795501230779319 0.7628478496799279 -0.699025443974147
196 -0.4047376822549304 -2.3125374112446084 0.06364314773539076
194 0.8090547209091565 -0.34696657398596636 -0.5513226277776138
195 -0.8759339040159695 -0.2531157013323305 1.3926375940674423
197 0.592957273092259 -0.87984033317585 0.13855935421794802
200 1.0810684206837868 0.4869160875385091 0.5707438191818464
198 -0.7220653021535157 -0.002232702239345647 0.46092183808112486
199 -0.6821332246495162 1.112446105770036 -0.17948016072038944
201 0.2557106915506492 -1.4479518347358795 -0.05502619929171093
203 0.36255109640589256 -1.2939302290944192 -0.2002921165134205
205 1.1920021863211512 -0.48934843436282555 -1.1719865145777428
207 -0.2878761996388899 0.8085269962917808 -0.3534621742167881
209 0.9362015630004252 0.7704564184751729 -0.9044536375020858
211 -0.8626871936439543 1.1163399637404778 1.1585371792147483
213 -1.098071681914867 -0.5979943545512907 -0.31937857937616243
215 -0.8689181030000268 -1.1707469022258963 -0.6106943024143353
217 0.6141713357073127 -0.8702215341015035 -1.8669770154954295
219 -0.32190353282020595 1.2181022452368373 0.4147319046273876
221 0.5875215472748092 -1.286868755604454 -0.7621591541199398
223 0.009919640094707388 1.2277433387041803 1.3038258888355045
225 0.17399591096798397 0.14177822721171807 -0.027816235011578712
227 0.24221009869450394 -0.8713276152298594 0.574505027393804
229 -1.0280544245089929 -0.5429560737117103 -0.8476752058196412
231 -0.2709913909676272 -0.5933099019910056 0.05611528596397172
233 -1.030691758394466 1.0397980216380318 -0.2698255992243192
235 -1.4841484301954422 1.7290967694028252 0.8573286902682543
237 1.769005189212565 0.47992922203456867 -0.24024140487301657
239 0.7702032084936916 2.5571642077662053 -0.5844728781290851
202 1.4512446639506114 1.9361650425131829 -0.5348692230178703
204 -1.250637944093118 0.4641871998553481 2.151827308587139
241 1.2924810316578286 -1.7758309262984115 0.3757093856007361
243 -1.6394909553324803 0.30706439115828815 -0.19022095033534556
206 -0.7731341613283659 -0.08061542289199464 0.1850049436960223
208 -0.4824128086827507 0.4896417708881102 -0.7238019939836473
245 0.1843796053560855 1.1664469344378225 0.48385305822638824
247 -0.18667547349186986 -0.062312266471480506 -1.6011706287425547
210 -1.0863147413661256 0.635066139209022 0.3109879145157718
212 1.264785746428017 -1.009612713553948 1.4202116023286209
249 0.12022029511609254 -0.8541743221934437 1.1901660221019192
251 0.07415202175372622 -1.6304535492436487 0.8929541754633947
214 0.7214639325486281 1.1094872262522135 -0.3521496749010443
216 -0.7614303888094596 0.1376972594425027 0.2695106067281713
253 -0.16502699634717868 0.21634716359567077 -0.9837363420520372
255 -1.0283995973710178 -0.9660995127746453 -0.9107779796710732
218 0.4926826051580966 0.31432278794618534 -0.09751212675456579
220 -0.8122673689967866 -0.46286006309897726 -0.24489718291043538
257 0.4501561174997725 0.9114466118236181 -0.25819767750080386
259 1.0678073640322576 -0.5658745131119854 -0.14418213356583937
224 0.6777888903961422 0.5937261784313628 0.08556794907138235
261 0.1122461926029219 -1.2713793216460156 -0.1461938492007783
222 0.49195085640999214 0.15093606911078872 -0.023445490425069573
228 -0.5271472091331962 -1.0034219922632113 0.05708725431093567
263 0.38362897116016087 -1.512252111524582 -0.2579450745834542
265 0.0997766099100787 0.528000268903645 0.06886648128875514
226 0.6169132354534269 0.8376197258238455 -0.4280095149077747
232 -1.8859984011883075 0.20451973266294393 -0.13416920682953754
267 -0.480276948658208 -0.4796654688804444 -1.05758231571851
269 0.9249494125204856 -0.030584603525963816 -0.33583647771226555
230 0.10030482170437181 -0.5438225956281785 -1.050795144114436
236 0.44518959756740895 0.3092544770446976 -0.26704906943712864
271 0.6285479648007527 -0.028394579070854534 -0.35110986836748687
273 0.3935153608543859 0.4155112969550715 -0.2354420124177512
234 0.35080749295913505 0.3154675785529619 -0.3619010138029852
240 1.3183065768523214 -0.4636639831160603 0.4583117455622957
275 -0.01817705555950877 0.37267755462306906 -0.8031308115423595
277 -1.8546755217326927 0.8640018659949242 0.5505288552142629
238 0.43144681842731514 0.5327230869768799 -0.2616128774041623
279 -1.7210830003568198 -0.7056373765407604 0.1626913972654049
242 0.2841619766808693 0.037551537523751184 1.200100400217841
244 0.3417828952336771 0.3804936137526796 1.058350113451138
281 0.9766427492242681 0.5648971757926101 0.019803390535266044
283 -1.065641562442845 0.6583634371934923 0.031341011135397924
246 0.7304733388661919 0.16125127853002683 -0.14641077761659102
248 -0.2065192433334424 0.6412904103935385 0.6186815664159069
285 0.48196262331925593 1.596395498589147 -0.6456485899827757
287 -0.12796768043826764 0.6971054028915677 -1.1567610549414977
250 -1.1580060264850973 0.2114773224913855 0.5538927797713082
252 1.465793540870347 0.21488553849233868 -0.8947833396769166
289 -0.5136885367004184 0.1192779536552572 -0.8398320155924212
291 0.2567118580125543 -0.07251204651599402 -1.3693844540921645
254 -0.34923818779009286 -1.2025676576419135 1.4452260235473178
256 0.3752757885369158 0.853913235430768 1.2133748623621428
293 1.3515560588538365 0.38069246959483644 -1.300915945042912
295 0.2970128383217025 0.39180815041081296 -1.0014236056242576
258 -0.38528080430474404 1.3444436721036224 -2.2278221745376774
260 -0.44906209592290314 0.2769314490104804 -0.5351173603487552
297 0.5509304048684681 0.2957064721251033 1.0055346829007028
299 0.6071430847538817 0.9346849810717871 0.1634628541307322
264 0.43997888046782085 0.9999692403163952 -0.26523530187357475
301 -1.2084226686255886 0.5229542891627931 1.1872646053088771
262 0.7488306872757177 0.9059162434781624 -0.47980659721638325
268 -0.08786255642630864 0.23035511095576106 0.34443320990572884
303 1.0347327863743945 0.581368671720863 0.8907121481691851
305 -1.8804489524840886 0.10307742254938297 -0.5709547615317127
266 -0.19264897909081935 0.2341813036749173 -0.39494533585056035
272 0.00356695525393878 -0.3409983232560915 0.5180051790410634
307 -0.45458712498609616 0.5186656836756767 0.39961771645927174
309 -0.0977265335573231 0.4730007557638065 -0.7690863061873052
270 -0.8337640801273359 0.512857671594912 -0.01947143474875856
276 -0.6177636412908046 0.896595773766563 0.4361796805846061
311 -0.8630953174095344 0.796262098445992 0.9864235245933316
313 1.507597655122606 -1.0616012295585928 1.3865593684846758
274 0.49166688766134403 -1.3635242697895589 -0.7076614370694772
280 -1.4338763104947712 0.7050141352426016 -0.2547782998876218
315 -0.7965907575048092 -0.20928196866126184 -0.505482723693985
317 -0.5396913547381362 -0.5696464019457703 -0.030243029124225995
278 0.115663579425144 0.5151954494890079 -0.04312847474046124
319 0.5082346771954549 -2.4047161165765476 -0.5559809070429212
282 1.5999863122842135 -1.476453234907445 0.2648955554393512
284 -0.12438230478012888 1.2392407238280025 0.7355108651076498
321 0.11955665521816941 0.023205976252742712 -0.17016943743577018
323 -0.27021780719679145 -0.6063906548940379 -0.5791583708958195
286 -0.08396794774942515 -0.12856645018950918 -0.8857606224586556
288 0.40244536125557534 1.693541456447976 -0.5873113518492347
325 -0.30309121797156985 -0.8488431165772581 0.5912895589661499
327 0.35288508428749094 1.472836483598845 -0.8446087728323657
290 -0.3040566825151292 0.31926983016663896 -0.21257596230980919
292 -1.063450951578067 -0.621468121147462 -0.34115301147607435
329 0.9560294894816604 1.7739509080145945 0.5945460281240127
331 0.3692867628493049 -1.1924571046130543 -0.8403164822350004
294 -0.7743422021328351 -0.5497194206428571 -0.5850278695532013
296 0.02980324386152211 0.8626397730928461 0.5203124472925613
333 0.5883978349522273 0.026195068360090903 -0.9088570173862955
335 0.11088792134533772 1.4951118604811646 0.04575873987793416
298 -0.6121922334280464 0.002662797144048039 1.1918545559954352
300 -0.6240545022712527 -0.29942894191995717 -0.19546454219620188
337 0.33117630413847116 0.19362837451611706 0.34253316883223134
339 0.15732196362217618 0.41335516603555084 0.1706431663900229
304 -0.5173476415260979 -0.30715322456588273 0.1339182587024359
341 -0.7958553691121758 -0.37342149078958936 -0.04029677629379861
302 -0.49647359573020156 -0.2146881974183926 0.5717492748392452
308 0.4729747389651509 0.09240334820655405 -0.3424847948505069
343 -2.0934570242057635 1.2407156535731179 1.5099911584145163
345 1.819286412834374 -0.1418209070371353 -0.532781103572911
306 -0.05687356210198394 0.32172374878745824 1.1331617820201287
312 2.0170572336809056 0.9666660051683599 0.3351874063817639
347 0.28604334748458177 -1.2208787997039814 -0.7329519226732234
349 1.5710111135872074 0.42741372420983414 -0.31955158106086956
310 -0.9147866300994733 -0.650004555096183 1.0012573566445693
316 0.384460646405982 -0.28783272100394364 0.7508763543934902
351 -1.3916544270771378 0.7130568995447095 0.87535106731094
353 -0.08269052111033391 0.30292161272761886 -0.5411883309518423
314 0.6816321771623106 -0.33211700834767127 0.34162955018557856
320 1.23722894490926 -0.44188692644237626 -0.27663705225170093
355 -0.7596296428898294 -0.1307703178322638 0.2804128076503154
357 0.448446711031866 -0.11805936916644706 0.19828074933787374
318 -0.3291991192219739 -0.010312629280616568 0.5812882759428969
359 0.004739253318672528 0.8303450009121107 -1.1275794734345137
322 -0.2528233277465076 0.645005526452664 0.7875211171163043
324 -1.0418922602331708 -0.4011851791895929 -0.9800997071634223
361 0.2517395457269645 0.9795821621317304 -0.6049784846071833
363 1.5293513952502003 -0.6108339008924427 -0.47409488270296013
326 0.263645940865809 1.9706936352323667 0.6579676095022
328 0.14121939449940812 0.5122260409735997 0.8457695172074432
365 -0.15911856237735272 1.155234865196139 0.1836217185311522
367 -0.20423726638627496 -0.9592088004990444 -0.9744920438134737
330 -0.789309733788406 -1.2620291111431976 0.7910403244236228
332 -0.7097026819186245 1.036734601670965 -0.34821044978056537
369 -0.0744603900410845 0.9924511973159114 0.6716957195152948
371 1.9661456299580018 -1.0339462777939987 -0.9329261201892929
334 -0.9626466965588193 0.7544765108649065 -0.5892111819474892
336 -0.8200384683938352 0.7192615459450511 -0.6289691440013847
373 0.11634118100259423 0.1985152209993303 -0.8818391285744052
375 -0.08962535506081702 -0.028318713917467014 -0.6803214202528516
338 -0.13242704335100985 -0.9234400480501501 -0.8764394345197933
340 -0.7733410998638391 -0.42549112932225597 0.6348209750173154
377 0.7767105400803963 0.290215929922638 0.6060357152323937
379 -0.47648536874309005 1.1164538291525323 -0.5265378583073719
344 1.4889497780007046 0.2075809850166663 0.9625012643436657
381 0.233847227244437 -1.7659697120336306 0.29003510412194505
342 0.08404363963698894 0.17873649793848576 0.6520149600085953
348 0.06626283197651428 -1.6159981251052389 0.8843732861462541
383 -0.07298280508704429 -0.9494606376815663 -0.07847221057055992
385 -0.48873997811594766 -0.11171024255663858 0.03770986098957951
346 0.16694444627364607 -1.289319706226133 -0.013685808377842855
352 0.23456069329681128 -0.044028375201424094 -0.6509380273552197
387 -0.29985433188499055 -1.3170948644256328 -0.042203169827331063
389 -0.4593130549744958 -0.09770885465845433 -0.6764842754757353
350 -0.1101486446877086 1.2128375823451352 -0.578003101734769
356 0.10908108554181425 -0.7426885912271672 0.8021891365461625
391 -1.3495231711754325 -1.5951119222290793 -1.2148427564460822
393 -0.26592095658933995 -0.7206546658929486 1.190843645763064
354 0.2909656133113814 1.139180183008145 0.15283615647815946
360 -0.6899472306566944 1.1390741182419533 1.0466556245588332
395 -0.27199201667017514 -0.05092553256592863 1.8463933219408746
397 0.07572808238169114 0.9194365534730413 1.2011001544171103
358 -0.4971670090826912 0.15490350521962218 1.0036553523291483
399 -0.07210150996422071 1.2958852269009264 0.7737059374601176
362 0.8566161584888552 0.006053736302945409 -0.6997574566288118
364 0.7929770227781994 0.3203983172766888 -0.6949635960428588
366 -1.1600561308404624 -0.1327573869981244 -0.5720909707978413
368 0.2548011007670188 -0.09656916882823763 -0.6570496237135296
370 -0.7552356327242631 0.7206072705580367 1.1920449096552532
372 -1.5414047765447272 -0.7095358551850424 0.3188371405697147
374 -0.39921489096725216 -0.24541522059911328 0.8522654980244204
376 -0.250043926426693 -0.16783704203969307 2.2940459980343135
378 0.8643398588497441 0.5511955877199524 -0.14134023020722475
380 0.33211541623933755 -0.12647135506984555 -0.924080196540011
384 -1.4059893299865194 -0.10812902782268749 -0.012186900164273193
382 0.49840713193475444 1.1584878732359933 -0.0833048441705568
388 -0.10140224769912845 -0.24889876434841296 0.2452079546772702
386 -0.8820098815629218 0.05192909987715618 0.3572669519438738
392 0.9205992927612143 1.1045289675288164 0.34025767950499275
390 0.7772834522674874 1.3209597433446647 -0.4051810582797274
396 -0.09428768563980916 -0.981792219952567 -1.3854695296751254
394 0.2589210125219131 -1.131340535107204 -1.2122982795003598
400 0.799357188724012 1.5575547063170836 -0.13440611846148023
398 1.3479818356188948 0.43815929446209584 -0.6169241945172579
401 -0.36865912250976546 0.026569413113552747 -0.05844006948307873
402 -0.6447951877821481 -0.836331746849255 1.0387840040977425
403 0.10046601741171926 1.3129107689990438 -0.3800459645459327
404 1.5872895809921113 1.2483550371129344 0.5658360481648873
405 -0.8980984121789701 -1.9171311867376 -1.94447961496701
406 -0.23809020524323984 -0.11398174459387363 1.3147709010837978
407 0.15098561964250845 0.7759435968176451 1.1361025021649431
408 -0.6702809012061597 0.28620389243516015 -1.4384144095696139
409 0.9023842963084648 0.07649530685331785 1.1045708461450263
410 0.5436824422695712 -0.905095718551175 -1.322835812413239
411 0.34564458279855326 -1.3569889917414983 -0.17752213366282113
412 -0.3884456755013874 -1.3320754163630377 0.03181336131358689
413 -0.3936466927689206 0.871321928831169 0.29577505278604455
414 -0.49260194377027416 -0.24311055892693603 1.988858201730429
415 0.8698863404004854 -0.1286555447156924 -0.5355905683790195
416 0.3207692485451247 -0.551940377800225 -0.5419894925077243
417 -0.42893495852804975 1.045384501358926 -0.25690780291842114
418 -0.697330965270581 -0.23964355358645464 0.19424136060510153
419 -0.4917984576197235 0.03452085506730795 0.6772589035733618
420 0.5069745369989634 -0.7664595125854317 2.0760127038898317
421 -1.0645285583125654 -1.1455574749406965 -1.7051501744144502
424 -0.5023273338951096 1.5084841985867332 0.03585957468390523
422 0.5940805590395517 0.2488831766691883 1.0302459696347692
423 1.2170524578447344 -0.13521449121672718 0.502040058106322
425 0.10476703734936547 0.22205188532745074 0.9047205550178474
428 -0.7175443971419844 -1.7184221048627182 0.21559139986146664
426 0.4694326274320509 0.42110564032569475 -0.3979213315180273
427 -0.21561518278949768 -2.0065659176005006 -0.7355208384444316
429 -1.7576590773805643 0.08764581958607665 -1.4854606772462928
432 0.14560041214299863 0.4790575718702969 1.2178508673256405
430 0.23661459799100124 -1.163298714944441 1.1629087372849989
431 -0.20492006667210766 -1.4264284772586053 0.2784531654993604
433 0.6959055403390466 1.2287372500980112 0.11180302253202437
436 -0.8193429289817507 1.3377751060689118 0.3069867994615682
434 -0.09001288971349336 -0.9982304967575922 -0.08958706069933367
435 -0.17591650683733429 0.3889255013706443 -0.9924637764119322
437 -1.4995853442557638 -1.1073290816856873 -0.3457820205708745
440 -0.05983434885790468 0.1230198159374832 0.7206196241198314
438 -0.16190330340751785 -0.8446906619850415 -0.10913349309730637
439 2.1756272398638083 0.5746345884977431 0.9507772750930267
441 0.3723740305060066 1.170513442864542 -0.4663735022176938
442 -0.11128764140840304 1.38880295656976 -0.30380997977891344
443 0.364441875706579 -1.1075747990533444 0.13135537086071908
444 0.8368913454645702 -1.226850464017818 0.31471648683936293
445 0.6168109310516021 0.46048350735642307 -0.9709352641432922
446 -0.9107467723498507 -0.4521213488704988 -0.9684893731512131
447 -0.5487040352504465 1.6734551946817602 0.22254602184478123
448 -0.20939828077531572 0.5830884013768635 -0.2415349346394167
449 -0.3436465099298603 0.017605458080410877 -1.058527196723786
450 1.195560433635685 1.0345680495101635 -0.9709277022959995
451 -0.7108018124638414 -0.19203699847114572 -0.2391712260635241
452 -1.0758978445218599 0.22622358593788963 -0.5642882074425681
453 0.00834672036285848 -1.407330698305782 -0.35800520799083646
454 0.06860899619022759 0.06364516213249807 1.332896425282036
455 -0.8150790689329225 -0.34902014927523717 1.5016228027676402
456 0.7856207967179432 0.4161360175814345 0.8759664369944249
457 0.08009826891213645 -1.4373814581659228 -0.06917153138725873
458 0.32059677149993154 0.5435590441943927 0.1124874518911392
459 0.5470007935961091 -1.3831899696658307 0.26413216776781384
460 0.9464430378250825 -1.7030758024927417 2.2559040086532067
461 -1.2564802705619371 0.7269653941670212 -0.4878636500942366
464 -0.6579048463102607 -0.5486283695479821 -0.3245218460626018
462 0.43605811088434654 -0.3339043814530427 1.5865265655839191
463 -0.6771952022068597 0.14586230647917148 0.7016445169100339
465 0.7911825172191151 1.6392263007763175 0.8734480894018184
468 -0.4222631016767459 -1.2064743467108807 0.2803744391433953
466 -0.5171374323713875 0.2352043871412222 0.46411943039566356
467 -1.2158764350969848 -0.39071403942434224 -0.07661623634964693
469 -0.30313073541256974 0.2249195044566055 0.3264659722130948
472 1.4384856632779504 -1.6298984589897232 -0.3360248740963097
470 0.6334072599870084 0.1499539683377654 0.08249967076099589
471 -0.5265084613447071 1.3557835648656702 -0.2869618811818911
473 -0.8827134442499117 0.2554214373237341 -1.1601340183123887
476 -0.6813362393083466 -1.5289257147365398 -1.6241239574853819
474 1.1017593332087479 -0.7049630411081087 -1.0637002828224822
475 -0.9471101974140268 0.21624789961900254 -0.21928784585862976
477 -0.08802353577465019 -0.592186329074158 -0.317340379027793
480 -1.4496553217925605 0.5906887353723577 0.6585091725283199
478 -0.9967235460206032 -0.19542327256412015 0.3848129793839088
479 -1.194571646528313 1.1206813006113905 -0.4972452238521282
481 1.1880472302158331 -1.5011684515115156 1.1716536491986933
482 -0.38881402205114685 1.1016211084988876 -0.6746636903933093
483 0.5247978976542809 -0.016741959090501968 -0.7887870888816704
484 0.1838029316802805 2.1704996605614064 -0.025550706572176948
485 -1.3899227407435948 0.2274473988415335 0.43013502057042485
486 -1.1764115864290015 1.1734215880077383 0.1736049911309522
487 -0.043582624336745014 -0.08456790126459941 0.2370368449057333
488 -0.5094940566088957 0.6834203872150855 -0.6229699333308464
489 0.915108162369421 -0.2994091066788049 0.648885269508032
490 0.20147350724957286 0.22310440999608397 0.4817826218365038
491 -0.8065918148595982 0.6849483381015933 0.3268603173545246
492 -0.7040526741901417 -1.1386806882145981 1.123654182651855
493 0.707115520884796 -0.6853418962665763 -0.6929945199533326
494 -0.9579595489844638 -1.5656856616884995 0.07635590700848804
495 0.24696235153210308 -0.5714422653660248 0.8730457214271079
496 -1.179014853481565 0.9065743527144523 0.29845962203133747
497 -1.0297998794203593 -0.5124288858222331 -0.12746041569645242
498 -0.26977657230291674 0.02731359530730043 0.3487175215505261
499 0.49670381597789115 1.2043503617837217 1.7013597428998541
500 0.15540144920228083 0.06854361519581942 0.1441581446585465
501 0.2398945486905626 0.33465165415575454 -0.030492461355965065
504 -0.5121060430138682 -1.0720018592255445 0.5882020982338821
502 -0.4567382541014286 0.29092762850912646 1.0225440297222288
503 -0.1876316991215595 1.7061610980131392 -1.853998295954804
505 -0.10736970769812117 1.3009866871497675 0.5146281584934711
508 -0.3763518894189982 -0.20513735463027608 1.1405389047933883
506 -0.04932492547268695 0.3982995755733527 -0.06695142658453947
507 0.45670640747396657 0.37710523786699934 -0.1206245840949254
509 -1.5845314431419426 0.23847751977053194 -0.21713426303193029
512 -0.4686967788578312 -0.3338194970108928 -0.4823200089795259
510 -0.3149480948110855 -1.0632846052870448 -0.7739423935252818
511 -0.8009196422897277 0.5569361301312921 -1.0486053964136453
513 -0.45013094002200255 -0.05969857761727495 0.9907447580982199
516 0.7334112451784028 0.7311961994160292 1.344603597929228
514 -0.822887875048063 0.3173980929297292 -0.5510838905172907
515 0.11790633558736287 -1.9899009893428532 0.40377800536429437
517 -0.7053795559064763 0.372073824672714 1.2531364495835051
520 0.0190153215643344 -0.7101676769658998 -0.4391210797792015
518 0.8322505048120238 -0.970137822480497 0.6918147331360336
519 -0.4727541421458716 -0.09576096900578646 -0.8528856283218744
521 0.5423931448241818 0.9817930065098491 0.0061297289872147345
522 0.34638036657367305 -0.7597898277128948 0.2988901569751214
523 -0.731732827854556 -0.04927575754630694 0.20512831527408718
524 -0.7927042787876315 0.9907433545585043 0.8200815135355728
525 0.46455814635600245 -1.2683213477018371 -1.4871011791725899
526 -1.11908850620649 0.7690676332527796 0.382406106713629
527 0.9747312769655102 -0.9828116284019326 0.20394324450491255
528 0.12939454428033753 -1.0369268143228387 -0.4428967941131551
529 -0.2192695562091547 -1.9819191808560814 -1.3422550202166514
530 0.31762345771629896 -0.6242993987564186 -0.9143683321087087
531 0.8398453437721267 0.6531803242911233 -0.4816196647604948
532 -0.7144967258148055 0.2579904301482522 -0.017101210969037856
533 -0.48749415262318896 0.9172267513482113 -0.7480977043760919
534 0.47491966796497065 -0.25869810110363745 -2.2383860092470846
535 1.1704030566699462 1.3172902006348328 -1.5974796940534697
536 -0.2588579040230804 -2.111833761472838 -0.767825176273369
537 -0.7403385318002035 2.1591898058007355 -0.4705742973801928
538 -0.2049471360623355 1.1231122455163585 0.09845837698793551
539 0.2546389695470873 0.5243479361784068 0.4347706975383903
540 0.43370197988039666 1.7984343117123072 -0.336607619670048
541 1.2203356096027116 -0.5444788283005542 0.19091944455426374
544 1.4360697270571328 -0.5241680184197156 -0.7151852153162043
542 0.6584157158929353 0.8189958280771991 0.34633788788918435
543 2.9512201256632835 -0.036337191148605674 0.5340368651935744
545 -0.3787275553780603 -0.0043079381473609575 1.9674493037862597
548 0.21559717738551776 -0.9897720209303011 0.5929753515862585
546 0.29955030409330363 0.8115532318874085 -0.14420883713143884
547 -0.31333032169793423 -0.23246490655683302 0.013810695916343896
549 0.32525838735123896 0.5848535464881138 0.24392891429602803
552 -1.8260432150069394 -0.2137200911460476 -1.1062577482348264
550 -0.6425960930466382 -1.3373034532348655 -0.39040088344257484
551 1.0879707300281871 0.8084544136728964 -0.33062726089502453
553 -0.03095058047290269 -1.3224930294684507 -0.4477497292063166
556 0.5290336865024217 -0.46200921058141253 -0.8559117113473727
554 0.9590269904180836 -1.8821644242822697 0.5122116043600851
555 -0.35345542849780515 -1.2295679369380244 -0.9740837018112656
557 -0.015300315749783246 -0.9862419518335834 -0.5412821771921749
560 0.30877784495863886 0.1904440140626557 -0.03826411117830847
558 1.3183857821006395 -2.0052928436095616 -0.42787084444323153
559 1.2178074113063417 -0.3925375302385416 -0.11424061257900461
561 -0.8252659592594772 0.11886179664808677 1.3055632589010069
562 0.48396078754916266 0.02758846575738767 1.3878960768160085
563 1.678337732331763 0.7699861949566755 -1.510207627748598
564 -1.7037355178259264 0.791023311103655 0.8036397587062386
565 0.27647199309679676 1.218221773662366 -0.273162629170095
566 -0.9998872981325411 1.3971300714867307 1.3894599967822616
567 1.0686832005951639 0.6624343873249543 -0.3150526239668665
568 -0.6929533119403514 -0.661188648289589 0.18416847131799957
569 0.9277118789416711 2.616949833027121 0.46861158161109057
570 -0.4258967493865909 -0.19578097094334174 -0.0794959908305562
571 0.39192102315526983 0.14710134807395991 0.3812664820230325
572 -0.1659972843817373 -0.1929063018148199 0.2881224672240885
573 -1.1351003136194309 -1.4985676817347537 0.9295320182883373
574 -1.0041317579622602 0.3886964550622301 0.3605046580029103
575 0.5902762903143155 0.20992032284497658 -0.28620851674573405
576 -0.1978513347409813 -0.3042283763922641 -0.4660427043819127
577 0.7390849810181217 -1.0794565102996545 -0.921266891456064
578 -0.3052249762697429 -2.139326869894937 0.41648706177362743
579 0.8220027051316199 -0.2527664283624179 0.02670614315357344
580 0.0893195498040349 -0.7650616759350217 -0.38194835575212577
581 -0.32252574446372756 -0.3911938274696298 0.671650033686929
584 -0.3852136036672219 -0.5785872087975588 -0.1176594903030599
582 0.3735241630519397 0.09768121302626649 -0.5148604955430787
583 1.223324472206407 0.528908468506997 0.5238326010645106
585 -0.3111565503230827 0.5163873596208803 -0.632052152434721
588 -1.8236690821388801 0.3052452340715756 -1.7502302737181121
586 -1.1091069621190965 -0.7565222124282001 -0.7485782140353733
587 0.6128375852984423 1.0601860328409292 1.4384890048078587
589 0.540340401130719 -0.46779137827206624 2.048902448504401
592 -1.5793191541121254 -0.7999028942117626 -1.5833223622732593
590 -0.5230691795006956 -0.29595425776356543 0.69787582589362
591 -0.6300061021052434 -0.7267299337730806 0.40553362091843687
593 -0.3513824811730094 1.5836703651142554 -0.4977355155239965
596 -1.193966471351344 0.4100339072512999 0.21298547466904072
594 -0.6185623068145519 -0.9136459575679714 0.0386957769577648
595 -0.2573456820739346 0.5132156552114071 -0.4511939785855414
597 0.3704857074371085 -1.2139591147496724 0.2562888551459866
600 -0.24125668950895954 -1.3390792658917885 0.41538788212121475
598 -0.7423854349051121 0.293633890682661 0.16360915032088627
599 0.12382074649703653 -0.0601206803998406 0.36884686960920626
601 0.483992926147585 -0.02081940375448462 -0.7876487272116349
603 0.2056101171262902 -1.3344450369158696 -0.34396506369409285
605 -0.9433898696990536 -0.6081414598304161 -0.6302370938570896
607 -0.07599768622814783 -1.3987905258353726 0.9833145632864831
609 -0.21097828962937917 -1.3347982669982594 0.667140395148222
611 -0.2833432432935674 0.15836945279138265 0.3216044466181439
613 -0.024116352020488036 -0.9577675475031355 1.5925421538222118
615 -1.4420742345661124 0.3666898537823141 -0.33482736319792256
617 1.1435988763977827 -0.6537727449406247 0.08561292820165906
619 0.9649497851223966 0.16241763142872365 -0.13825692817133636
621 0.9880077192997159 0.7004174745500942 -1.209090524613448
623 0.4634052085868802 0.4990784417964341 -0.025898614247390588
625 0.2685981777028032 -0.06661235544625752 -0.2584125774648285
627 0.11445610604856948 -0.41960494602683285 0.32450298888894424
629 -1.3493200046208869 -1.2713424889243434 0.7904131650021416
631 -0.8946965616750922 1.746165417101521 -0.37847083078163996
633 0.3144628668625471 0.08341059548067292 0.24954783314397513
635 0.12900606916865748 -0.02004947979508219 -0.7435279256045253
637 0.3193098105899888 0.32044300246498997 -0.9502362283501116
639 0.11973122013256182 -1.372483199771174 -0.6152581323130472
602 -0.8363233986080035 0.8795153287349597 0.6269024066789213
604 -0.8156132725575626 -0.6512852320150794 -0.15897661857316273
641 -0.22193433812000835 -1.4810860298455397 0.24579115893825043
643 0.49108009191887425 1.2070811468435638 -0.6753007106292513
606 -0.3418354252485471 2.0470876589036906 0.468714950774066
608 1.2355381085355732 -1.8444409905263022 0.01849210975154429
645 0.03113821496376273 -0.30693756174028874 -1.1148851582596309
647 -0.18536294432797062 0.4684015594565371 -0.17221682578963085
610 -0.7663975373770024 -0.07916084816864981 -0.5048043697203378
612 0.29780560733028405 0.5405784193822569 0.4271642802740651
649 0.2725018178900709 -0.29944666845857554 0.3869692692285742
651 -0.6544590187596303 0.6971314448565785 1.973482395773993
614 0.3082181643256757 0.49889687502544383 -0.7010122693223316
616 0.15511902279259923 0.5568511938158426 0.5302746394193313
653 0.1741778412030741 1.3161863789011572 -0.0752461077580011
655 -0.2864222781916309 -0.3098324232707423 -0.08100712389845889
618 0.2136879145371414 -2.433926002161252 0.6890381609271617
620 -0.4293126054982215 0.063774416989787 -0.9706488992652894
657 0.7128419702688553 -1.1280362344496908 -1.4691254510493206
659 0.5804536329459229 0.8265322642506324 0.6946168034633913
624 1.9390877781748672 0.5016227233084437 0.9561094968568066
661 0.16685787160482737 -1.5121068373783324 -0.12070900767481867
622 0.016045864063678653 0.22677293056385933 0.5853557794537827
628 1.0061007115941496 1.3290477222705948 0.8719807923363158
663 0.023418171262434742 -0.21388159517069558 0.6122916566641997
665 0.49535613821512864 0.733581139454376 0.39148661467583273
626 0.424982333601614 0.08151948632454009 -0.06621382071769769
632 0.8700004432673003 -0.28866424388981043 0.05035123842350916
667 0.5568655397437811 1.5656768328308075 0.15278839586978515
669 -0.010098985814608576 1.1985218996935192 1.03329937828575
630 -0.3951620001521964 0.5872441955286393 -0.5491476840488427
636 0.7244570735553609 -0.39017894574773426 -0.3680591284510455
671 -0.8564288032039464 0.7374552619823107 -0.6766814382308786
673 0.401027475101014 1.2573160817317233 -1.4276457491901824
634 -0.729182221273206 0.06972489389510286 0.4520954823699093
640 0.365150106510282 -0.5163711713934007 0.5117126179893453
675 0.29724492263498226 -0.6547597311215738 -1.4829836373609768
677 -0.20375878417095125 1.3788033761119456 0.8743731116791079
638 -0.9261807606312951 -0.2814016831157199 0.8233140246774624
679 -0.9411980033549232 0.8255576518407239 -0.07722093968172948
642 -0.8169664624623476 0.36416440463816996 0.38059099002891916
644 -0.03736500580383122 -0.0895911678923997 -0.6404476498788545
681 -0.41169260672820046 -1.1960087723459054 -0.9667084711238995
683 -0.4269912579543836 0.3358004460029013 -0.040381408923113364
646 -0.7393436675659681 -0.47808561854278114 -0.5561586040035144
648 -1.1555118787144578 -0.11289222298197034 -1.8372040463883426
685 -0.4600553029655827 1.0048617543448677 0.19107018828013123
687 -0.6740562983759281 0.20961994732706624 0.04132943427702895
650 -0.08814889011386177 -0.13094152847583695 -0.1346692099964018
652 -0.03867530026885529 0.5537797795546732 -1.3488443048367127
689 0.39367292746054616 -0.7419152110388776 -0.5416692614870133
691 0.17547656496028258 -0.549352623024572 -0.4147857333167667
654 0.4922798536187584 -0.5165535796115827 -1.686584855855181
656 -0.42445720308014007 0.9914373264902195 0.14698103094878257
693 -0.5813875348757984 -0.8030236612169931 -0.7486896262214433
695 0.9473178559150698 -0.20175606391943068 0.38901760290012033
658 1.4637672698066226 -0.3278658172870955 -2.091831326530301
660 -0.8106800396297662 -0.04136055919734734 0.694378103719969
697 -0.9503784583224568 -0.6745289187552713 -0.8186183109403623
699 0.31412442463964557 -1.1413163461657372 -0.4214374424378906
664 -0.19421845810172303 -0.9010929685962905 -0.445460261960078
701 2.173003439251695 -0.3809513024205453 1.2935917665792975
662 0.13639568678583897 0.8312282976641603 0.17158208282529433
668 1.096435085597139 0.4101968180402803 0.27685172306886774
703 0.7989614607567336 0.14854839754470112 -0.6912878725070168
705 -0.1759676977151247 0.0045207505770515286 -0.6740169232302452
666 1.2437292464385017 -0.6934818218206393 -0.5537728380632946
672 -0.9153772051864546 -0.6335653655298203 -0.7834725533570792
707 -0.5348651027038568 -0.9513213173172733 1.4678677570317145
709 1.0192381961924855 0.509138915683013 -0.13439547549737735
670 0.20665897561014243 0.029740716585953314 0.8967958336814701
676 -0.5355682531064477 -0.23382575090093918 -1.0382930010288032
711 0.6319700675496559 1.1190920778226316 -0.35939053926121345
713 0.4681413197607579 0.4530598197987061 -0.28410832465221525
674 -1.7429034144249906 -0.2196092095549113 0.23758342568742682
680 -0.7693902800566959 -0.06894745659188431 0.15618151790496027
715 -0.1597151675986696 -0.4481360680188041 -0.468008178482782
717 0.5577371733413585 0.4553569290536979 0.2592581053711641
678 0.896790219597348 0.8111918291539327 -0.35720926296398925
719 -0.5345491907695172 0.8481008112545227 -0.3088024316477216
682 -0.029252419142023506 -1.0319948528418101 0.13879502104876096
684 -1.2095487719713693 -0.20326820805808488 -0.883664981901646
721 -0.55081019692145 1.3880462454912628 0.6318997702009497
723 -0.9327391107834676 -1.9337459508111408 -1.3916834244910157
686 0.11863469901250817 -1.0645516618946127 -0.6043636500596611
688 0.10789789838227815 0.00367766928591649 -0.9570189883601286
725 0.41994826977982425 -0.5352616356084521 -0.6401052215406893
727 0.3543799992863418 -0.30053859235087177 -0.024203779412045837
690 0.3367892669935049 0.3715260576729955 -0.08045409788663362
692 0.8469811113061728 1.1278473598166587 -0.7917585743392823
729 -0.5925083220197506 0.4181498900381663 -0.09142992295982583
731 -0.37471206667378326 0.09818374693479118 -0.7445178682515877
694 0.5336431117114175 -1.5205435443412758 0.19867085501641119
696 0.6228735172726636 0.4832456482588833 -0.8072197527963014
733 -0.8726730558197077 0.39350008554698773 -1.7166045967129113
735 -0.02429103598826302 0.6252921261767026 1.2302582416502943
698 -0.4003198989205004 -0.015138423857083902 -0.9850249978842293
700 0.8299060741375713 -1.851946767084536 -0.2731259068661431
737 -0.07439385563395275 0.4997845962005596 0.5927735874205402
739 -1.2175480156097627 0.46455516585684964 -0.40386312488547504
704 -0.06364716529989302 -0.7349836709815067 -0.9708535678724304
741 -0.13321843158530505 -1.5128638639139014 1.2541804758323578
702 -1.7586166654717703 -0.480483776112551 0.9432748103927141
708 -1.0537760402732237 0.32152038774915975 -0.983587887603239
743 0.5897555189766577 1.0224299309253506 1.636409747587727
745 -0.46053415305238227 -0.42919994403429934 -1.1242147692981843
706 1.5894061780705424 0.9556330172821496 -0.34919166127256207
712 -0.7604628315734179 -0.9669700994221421 -1.8210085751129381
747 0.024917413927621576 1.93685907685797 0.649299730215499
749 1.1262699911009473 0.30789510694319416 1.082904931779138
710 -0.3847932404240088 -0.7459769628840369 -0.403322846032783
716 -1.1768525141415154 -0.34409674867979395 -0.5930556163841962
751 1.019091054105896 1.0991024740159185 0.1464412490952794
753 0.5386349050203234 -0.011848181425942492 0.20994014015493032
714 0.5978624183214671 0.49314002940323737 -0.8467415001173081
720 0.03157615612041699 0.7897594929271561 -0.7742457062607504
755 0.26734706697741284 0.1604116411310619 -0.794867374639861
757 -0.2184819692795841 0.027231078829199548 -0.6167802476045265
718 0.7011541280983978 -0.08296166443705968 0.1451542671770109
759 -0.7291231566430959 -0.3502376909862958 -0.11566452973107073
722 0.4145870285001723 -0.8332169672113391 0.17557018412086722
724 -0.4195376623984639 1.0444013738437277 0.16579554943259484
761 -1.0097141949877226 0.8921550709919768 1.3538732938999554
763 0.7200829066329457 1.2862036669399626 0.8609073729188046
726 -0.8167504470094891 -0.08041231262462875 -0.6471440307517973
728 -0.049785103430595445 -0.8155899857641176 0.6082675315012055
765 0.20014992293090303 0.9391129684890956 0.8513152395765864
767 0.019212429472609316 0.2913136244526126 -0.5397623468619518
730 0.0639702086440716 0.9049635360627951 1.4227021574449892
732 0.841669146188327 -0.5387628140592272 -0.2699170066707658
769 1.1938140293891584 0.49339708850288755 0.17238402229723204
771 0.17601702899916188 -1.004322201317813 -0.9076389839962722
734 -0.16045660293506764 -0.5105625820842943 0.32691407096987773
736 -0.7667520246311036 0.9036383691253013 -0.02347353899950151
773 -0.7275480694596491 -0.34242308183363257 -1.1867902727722317
775 -0.4612169451136581 0.5528984389355489 -0.23060431173882617
738 0.011757870476807306 -0.3975108823461562 -0.8968399987088529
740 -1.2932433826480743 -0.9593366164878294 -0.14669741592208263
777 0.6196294692886806 -1.5889143007514055 -1.3666161214404615
779 1.2469201880690177 0.34026471633851574 -0.07568958072240256
744 -0.35860284100891415 -2.4795959854630802 -1.3447843626965372
781 -0.6867026372018965 1.167145250325522 0.15939658899343384
742 0.069079014242523 -1.8826500941521458 -0.5989332116863408
748 0.46577168454316775 -0.6060194750328832 0.5373804720295094
783 0.4276663848977349 0.24664376053784742 0.1996746041669518
785 1.0962151940569327 0.015619744414854586 -0.4274343172335252
746 -0.4676069435297139 0.6050066717072432 0.4012378851308811
752 1.1414831151241327 -1.198133799082939 1.4386171535838739
787 0.5332105607058001 -0.685968894150382 0.16270502739905093
789 0.8029929096881607 0.9446200407775402 1.2501467776700859
750 1.5477106948876465 0.12126150526124946 0.005491161710573485
756 -0.2584195921795321 -0.22446390360978463 0.41385345497629356
791 0.026406362590677024 0.37511225545795346 -0.11796156724229921
793 -1.3572324340859243 -0.8244667461341114 -0.9578476574133875
754 -0.4577549295427643 1.20719730282182 0.06875341371501283
760 -0.12647993231433544 -0.3140867575840957 0.3594624668232033
795 1.3044710359364131 1.5455486971051973 -0.4177577528774247
797 0.34757210726358784 0.1603011258295982 -0.9016054471872422
758 0.6225005859855223 1.397714375586616 -1.2615754501268335
799 1.0089375187498137 -1.9832082573748873 0.4663799727832302
762 0.7785857789446036 -0.3191201430676154 -0.38903069514319993
764 1.3627299474095091 -0.9381258224506411 0.20415837188135627
766 -0.4274793061229707 -0.8485823534393653 -0.05247602242916058
768 0.1334452097661064 -0.22149643096262145 0.06635448723678009
770 0.5019747842877117 1.3501013780466178 0.8415578012174418
772 -0.871466771261054 -0.6571127872579728 0.012789139745256473
774 1.1419209999853766 -0.3715936033699333 0.4648425451708954
776 0.09174400576335466 -1.280969325668073 1.3142729723033448
778 -0.07331278454224753 -0.6348518708119757 0.36857486935264944
780 0.2770199296453104 -0.9013224695628657 1.0365814245983127
784 0.5606850826597666 1.6753792628784159 -0.720839380730761
782 -0.8515543225490196 0.48593425626386666 -0.359282370396005
788 -0.5173404328188974 0.5098796818614597 0.4535972496725269
786 -0.16849652086899913 -0.42095528925398484 1.6103480755397102
792 -2.369862732351396 0.18684699579379788 -0.3716562442101827
790 -0.018092411879922055 0.43086635293434633 -0.7644107124121481
796 1.259906159332689 0.4642347029457714 -0.4829252429401874
794 -0.7676156769968359 0.9442073404698041 0.5805940589610404
800 -0.024616947882982854 0.6379555534805855 0.9874625585223501
798 0.423566731246109 -1.0938995611610247 -0.560285175307791
801 -1.3361890573311452 0.5826696639705414 -0.8622177882951485
802 0.9091709977065571 -0.38466976111499995 -0.8431511192307812
803 -0.5057514044454093 0.2468655245489751 -1.4604988328901496
804 -0.05086472981862388 -0.5630117729577123 -0.0665910301299707
805 -0.011623533321989475 -2.835964473229589 -0.8808792284252421
806 -0.061256013496882616 -1.0136636771120355 0.19119911779319987
807 -0.7179020825297963 -1.2478901743152417 -0.14022132069685292
808 0.04391021274780581 -0.785432213152203 -0.4209850463319225
809 0.0729115319228951 0.016285684324618466 0.1277088934267962
810 -1.5842469400569008 -0.25141346215532606 0.19483632406944573
811 -0.9211154102591543 -0.7710939548078742 -0.12908588590659592
812 -0.4417188436550239 0.6007549194204839 0.353610584493415
813 -0.5103987057051667 0.2916412281418059 0.10333784339214185
814 0.44100202522326304 -0.3493033444803433 -0.5350634624924289
815 -0.1748981482033975 0.3596055087028655 0.3541639687585601
816 -0.4917024491269588 0.19379045896287006 0.06362160119060847
817 -0.8073997374268335 0.7813992968184041 0.07263333110603568
818 1.181311381171256 0.9250710441778021 0.08839189740348469
819 0.19730445697391621 0.08432814616196845 -0.5926088768859005
820 0.9330903298130623 0.13378216350579333 -1.1167173567798157
821 -0.38634987701259715 0.5486223159555281 0.5108583242373226
824 -0.34565654584109856 1.030530448542399 0.33312693430976664
822 -0.41626028344993915 -0.5161501343191636 0.10456448585118198
823 -1.316757939103848 -0.1081343813800477 0.22428488832504812
825 0.6390634516345317 -0.8221561488619308 0.37063177302537376
828 -0.5000217923397989 -1.3840552874888905 0.30657277458093446
826 0.24549192876673978 0.17807316366863293 -0.9242035521996036
827 -0.45931394862187036 0.5367328415572437 0.9987148538011383
829 -0.3526090783671347 -0.5805234494758564 0.11971916997906086
832 0.40300315213642296 0.9390643072570454 0.8561346318728256
830 -1.2201240274632301 0.3726077880103691 0.4319101329477584
831 -0.9762016274674089 1.353624157877767 -0.3038698611707091
833 -0.5048463211199714 -1.1988999128992206 0.4184519542766841
836 1.9149806262266762 -1.586238779187245 -0.2034586363416886
834 -0.286941813956687 0.8940800263940816 0.4740085412370076
835 0.25413960092467214 0.43911414359711887 -1.3019379963473439
837 -0.5415713114862224 -0.40952098710318796 0.00948769365635657
840 1.8453839819293065 -0.8573177075815019 1.8739729504891964
838 0.12940345146747478 -0.09101635395785362 1.0764652684873286
839 0.40658003308213375 1.6937592416630503 0.7952242106376516
841 -0.3144687413962178 -0.4633692249891992 0.11589910345751808
842 0.3917598108139511 0.13180382653556758 -0.6872650086812708
843 1.4870688285590632 -1.180102298702729 0.9655462595358172
844 -0.2964916924087395 0.7844944767641336 -0.21109017406860273
845 0.6521244670474625 -0.6609391168417468 -1.3236244771113979
846 0.024672259781165815 1.0090585709166668 -0.6102647421884962
847 -0.7232204338032063 -0.7411751107362504 0.3592324360614023
848 0.9467422946362032 -1.1214808446070157 -0.4834128530702897
849 0.786177188079789 -0.19492410049191508 -0.21112215950888005
850 0.02890804927994363 0.23586648607914174 1.229829734176544
851 0.7973383746610538 -0.6597171827956569 -0.7134525246738965
852 -0.6256075709371168 0.551482755006173 -0.5103850415746485
853 1.8022873359773426 0.05687218696137497 -0.3745195628507799
854 -0.012875990911219503 0.6151772508588838 -0.6580210281551176
855 -0.28529075071328064 -0.9080021771350694 -0.23908874806007277
856 0.2697243908129472 1.1166905019130555 0.49704424820750037
857 0.8324586739437839 1.964423913259161 -0.3786292641049839
858 -0.2186683142731672 -0.8243441602846072 -0.5205686345915871
859 -2.6972085123397704 -0.17657393395547402 -0.08765287883384529
860 -1.0376913896741533 -1.1379691182313763 0.05434395219787822
861 0.17090995183176694 -0.4433509656008224 -1.3833811038316988
864 -0.8666668062026281 0.5940526151486104 -0.09211851284593596
862 -0.9414758336064932 0.0014708804842419251 -0.37724628689908757
863 -0.27294278251622667 0.5034998638134356 0.3885325377269049
865 -1.3133855540511359 0.36166567481996725 0.0363906314184409
868 1.2394234126684298 -0.5578004130239385 0.3015745034177357
866 -0.3864552013779547 -1.2969218314779274 0.22980006408505838
867 0.01457392923466895 0.2672110216556778 1.9618980720296268
869 0.7040039781517528 1.5286891521072004 0.7729679237086544
872 -0.701717836447797 -0.20906684138354803 -0.16530750464485242
870 0.929785093312362 -0.8070506223923347 -0.42816209099370445
871 2.0571435387565002 -0.697271080118694 0.6167256491304098
873 1.1045079583771176 0.6428554947098579 -0.2804810072056871
876 0.28625195638149414 -1.5705497324928699 1.0059523112788469
874 0.37259822559485123 1.648483454907015 0.10405880121017488
875 1.1702833564953634 0.0183581795266246 -0.7810754503623389
877 0.7374149535394167 -0.45771916156190534 0.002540187023642719
880 -0.657649840622249 0.07219911602846033 -0.49680485879150726
878 -0.5580356691841614 0.20985217710621817 0.10960845382280303
879 -0.03979789890494337 -0.4980177028710799 0.8579616545049432
881 -1.202679772499418 -1.0895850504792939 0.5305809940010577
882 -0.39438633371929327 -0.8282077297702756 -0.27453303548577834
883 -3.18254830355325 0.09286792674079627 0.13621779737833561
884 0.920069303519585 0.9979632852437548 -1.304616987491566
885 0.9603623389126331 -1.311632683857261 -0.5597951758874549
886 -0.7424662527850193 1.4514752484009499 0.08538552770308531
887 -0.3501021542252504 -0.5627403193062757 0.060060893074201795
888 0.7232505044409032 0.6301213867325832 -0.5186071155360616
889 1.1218335614836856 -0.7829959514735215 -0.6336642131837953
890 -1.2925825912768951 0.8749172006857077 -0.45122832200504653
891 0.2052577777315739 0.8183854316178562 0.8313421468942743
892 -0.15587072352233794 -0.9478974495819791 1.1715656509141499
893 -0.6101568029962028 0.753205420153049 0.13674069339591638
894 -1.3618897138129173 1.5669027256028794 -0.40112966451087245
895 0.7301692709026906 -0.45255661739220354 1.192814298747392
896 -0.39212894874890186 0.1265514591380226 -0.4239964112676553
897 0.5188021682424709 -0.27450428990939824 1.024117663499735
898 -0.5491161993560866 -1.185647730322607 -1.3680601136514712
899 1.0875081749911355 -0.7974981949193485 0.033532846049618925
900 0.36702003930685934 0.8481400761204395 0.07728450678112912
901 -0.014602565025054151 -0.13793179332461986 0.31444287347607147
904 1.2076244272305536 -0.05436116664484206 1.5574721240768201
902 -1.692039605125753 -0.4307313703775327 0.7230132128528199
903 1.2967667084909662 0.49557702700422335 -1.8322918290619656
905 1.0416514401018173 0.05109513378218506 0.2622844143009603
908 1.2312068276242711 -2.0674774288808724 0.3973474569566979
906 0.38029267098355285 0.6318907868671907 -0.7914834923614582
907 -0.4164945062319929 0.20404957410455715 -0.2565823660739372
909 -1.5212473578692312 1.210158295087743 -0.48695160272076743
912 0.422519615417983 -0.38613657838111815 0.023697878416294477
910 0.16598067002972572 -0.7484533061328303 -0.19507061909035628
911 -0.5183220290796753 -0.788163019375472 -0.15299408539101295
913 -0.535930547823383 1.3254591720547324 0.4494767167802423
916 0.939419260054968 -0.42266306779992846 0.9866250109237508
914 -0.7716475334726014 0.9178989304368691 -0.5099363705790961
915 0.3194711511933593 1.180839088391508 -0.630888231536483
917 -0.5980592315637374 -0.06840489597978877 0.5497778679564153
920 -0.5539787080230237 -0.26824406296058584 1.3432756970714952
918 -0.5045578496627126 0.3557220761253063 -0.8168894583060649
919 -0.4321133997499983 0.8520864710263145 0.6633600538484663
921 0.26229513442620583 -0.385500943459513 -0.4407402947413627
922 -0.20713583512626488 0.22724933714897574 -0.4627204489310708
923 -1.4457395723765203 -0.42686571623989267 0.703250244234414
924 1.5062896302463586 -0.15036802981184416 -1.1291035545869137
925 0.2373703976086979 -0.41680578493116843 0.44995449240002294
926 0.34164930863165915 0.330892951939665 0.33492874149720625
927 -1.3935671260667513 0.739433053351509 -1.0010466284066155
928 0.3957536151026615 0.6028075205721345 -0.038125208251499045
929 0.06501118102678538 1.1723782011448158 0.3583226705006472
930 0.5844618089196367 -0.44774217098892616 -0.18374803526770647
931 0.5134102479614501 -0.15682516928881063 -0.14259004465542804
932 0.657879830259918 0.41376723781808833 1.1678567380266838
933 -0.7049612534573223 0.043498094197623904 0.6374388511098364
934 1.229375000030792 -1.030678314658933 1.4178886467648135
935 -0.2948789817312158 0.41220120129581983 -1.6151565935155092
936 1.0101904251605927 1.3992214648099257 0.18697776171730618
937 -1.8001356722408735 -0.5972270719375847 0.5505062780531008
938 -1.1067302943312225 -0.8583766386910968 2.337762080243425
939 -0.7238004451775876 -1.8152908761241058 0.4456329860126095
940 0.8308622782424449 1.043086814219954 -1.1229254246556073
941 -0.26994973134801864 0.2001554694532119 -0.8294822972718634
944 0.9193795674930391 -0.572889408449901 0.06377649913696005
942 0.16938186233385882 -0.9178800432474409 -0.9520129998223464
943 0.9355590670323397 0.5400998314191938 0.5969923230704367
945 -0.46342200073598394 -1.3290915718312633 -0.40356424793740764
948 -0.09706036245525251 0.40416742517748605 -0.828352877015527
946 0.7873679182536059 0.8300387205485319 1.2849746643318485
947 -0.0020038907954652574 0.5885159010028574 0.49888869884724907
949 0.21382748564977969 -1.4989028438464422 0.11785347483303259
952 -1.2922274272149186 1.682905392662068 0.6928708165916858
950 0.986219610577936 -0.20241175542915016 0.6444469524516716
951 -0.28638758754601396 0.15267844688617455 0.23747423664985096
953 -0.09346565723596775 0.6783914212345721 0.7534411729381513
956 0.8964747938924704 0.21564226174005285 -0.515703844675143
954 0.8186972360536152 0.5809582569255506 0.26096901519979315
955 -0.5246852446464045 -1.917349462205306 -0.3197929241348388
957 0.584845717827138 -1.0659189335398258 -0.6608496016816368
960 0.8023940111911078 -1.6563375269216836 -0.4274728175356101
958 0.4473398833507519 1.2581486128767543 0.10756840476305639
959 0.012489989313148297 1.2247610416275079 -0.9527046109405359
961 -0.5912305144003148 0.22235033466266146 -0.012773532911003317
962 -0.3007843770877729 1.048071009227713 0.7289039122993723
963 0.8385935452334925 -1.2077747456098173 0.7707773004942496
964 -2.5320635796562847 -0.4393906968597418 0.01035407238879348
965 1.2010695298905498 1.2814599783649945 1.1655800058589083
966 0.3997531191032396 0.5873434647719288 1.3018512922741385
967 0.684168940230143 -1.284848478037039 1.0885894512049872
968 -0.5171043709768434 -1.136603704041853 -1.3468937062509811
969 -0.5432560612871906 -0.8885899567273963 0.8577595587725322
970 -0.11780744633406777 1.0188923097929767 -0.3924983883505995
971 -0.07046570325708804 -0.10936932458741504 0.22155756031121288
972 0.79023123584161 -0.3926910843469242 -0.1523982505463147
973 -1.3179195763943161 1.2678575217324248 1.0186919858466401
974 0.02097535305549253 -2.532416861719677 -0.32197289125913237
975 -0.8079930397418613 0.26164350208063686 0.09088603962916399
976 -1.3683253508872935 -0.008290104852204768 0.45605809639818445
977 1.0829910824808138 -0.843999119930018 -0.038266149513253134
978 -0.17059094453648593 0.3086164809827439 0.3736053993194165
979 0.1306816018322788 -0.09206821217323373 -0.2804765093657957
980 0.7126334899364677 -0.9405693593505158 0.38636677885103926
981 -1.4609711499248976 0.6753578596822172 -0.5978776216932712
984 0.4423934286909404 -0.1878196157375568 1.0461731645437118
982 -0.8415557068140406 0.8267880832159547 0.7176190342845198
983 -0.6054280660397678 0.6599989193165788 0.7453175250554583
985 -0.9689747803907198 0.4067472360545818 0.4935905273636251
988 -0.8145262687530123 0.7974364752593375 0.3393882405467225
986 -0.5237828307090802 1.6393161927225695 -0.39958502458269884
987 -0.2782284296213568 -1.17281118714472 -1.091067837379861
989 0.2519905473848146 -1.6885386567124052 -0.5409469479759872
992 0.5426335453949076 -0.47255801804528513 -0.4247151833371992
990 -1.8311234970815193 0.9064526827425154 0.4913192404170055
991 -0.9804162102471119 -0.5177790335764667 -0.5083342840903814
993 0.6021110530313871 1.982954895013364 0.024562907495624772
996 0.8984783753966439 -0.022953366493598668 0.04329423321604015
994 -0.6264224932548137 -0.9701476842946656 0.16460513352319786
995 -0.5772049922543809 0.006999961760113978 -0.6074952050129389
997 0.06742225900012297 -0.05963434474763563 0.9878046934283052
1000 1.5091176374228905 -0.7423671269638185 0.05257788471461511
998 0.16580936911230157 -1.1369424024221844 0.4430546924769993
999 -1.0016215931461996 0.42158852606058944 0.06200322206381754
1001 0.8143865528200571 -0.19078044355309837 -0.9599311459790253
1003 0.13740046352490337 -0.80601572214126 0.7774206055119715
1005 -0.40988745103719837 0.58290774982817 -0.8842356218480898
1007 0.14612154315136347 -0.7673656852203418 -0.7734480677501462
1009 -0.45323674002290104 -1.0270529003100854 -1.097290084013009
1011 0.43533546858592276 -0.3863029387656715 -1.1312514112577496
1013 0.9968344862517396 0.49056069541246816 -1.2131251640003649
1015 0.32918032910916906 -0.43038283032478164 -0.342459377253712
1017 -0.28872224053039225 -0.6355710102090789 -0.29718207567053273
1019 0.6735975202497942 -0.9455015282841736 0.046648905194023864
1021 0.4271424161329581 0.2776052307217348 1.5065314072483942
1023 -0.4096458498534104 0.1287728435193173 -0.4551176895537878
1025 -0.681264006735944 -0.17892302508070465 -0.05619985202762991
1027 0.46808263405143336 -0.6258728778247585 -0.3241745948207507
1029 -0.5657069479548944 -1.499166890067377 -0.022341520276214468
1031 0.12653498683477554 0.7025672872012216 -0.24694835484614938
1033 -0.520516984090497 -0.9013250640716411 -0.0476852323258954
1035 0.4994715351070218 -0.34853609735238067 -0.396358799540185
1037 -0.08409419738552087 0.4280287295295142 -1.2085529547554705
1039 -1.5026257741808595 -0.5140461916458248 0.21475365739849372
1002 1.1312637490121384 0.33618328046884577 2.149355815241246
1004 -0.015151719532203341 0.3398613976247016 -0.6661632166168997
1041 -0.6717552964644443 0.2732408474357673 -0.8894657874698809
1043 -0.06523069044513656 -0.025589122763675226 -0.319008691526765
1006 -0.10979886928530598 0.2286699062258634 0.23557063654983448
1008 -1.0599919380908138 0.6624025542184099 -0.9218971114305219
1045 1.3295415289323782 -0.0719531539631701 1.1211066231664362
1047 0.1312004591171091 -0.9533385922734974 -0.17892516513955095
1010 0.6882564420895675 -0.13921015540287784 0.3653501677610445
1012 -0.862337926809917 -0.6234033278712579 -1.6370566348713567
1049 0.45914430436224396 -1.4163297915525928 0.5120815296872872
1051 0.23183974267231533 -0.6363284912392105 0.35702833896473885
1014 -1.241478889281493 1.463865668865977 0.3650193548630288
1016 1.4569541944697737 -0.4878722309145681 0.28158403907445384
1053 -0.7825391922929551 -0.07804220923031588 -0.7953172104837277
1055 1.2982010860998923 0.79363935600853 -0.15185234789918936
1018 0.34946175197676527 0.19861720429090007 0.680749724879536
1020 -0.44493855985900715 0.8815425612318452 -0.13793089848699902
1057 0.22955302151583684 -1.4599014561975638 0.6042160908698145
1059 -1.7826183486411393 0.6525845357317468 -0.41323254623205374
1024 -1.4521049127785308 -1.532855370726351 0.844292087320537
1061 0.21563053675378108 -0.38492363201448 0.35355453019015526
1022 -0.4481300256448785 -0.2613912618999491 0.889890963239853
1028 0.31148265315921575 0.06869659587839946 0.10905703088454363
1063 -0.48479582255125486 -0.8743121327792429 -0.4373263734570534
1065 -1.0721170822213246 -0.740318069355128 -0.5607038396057535
1026 -1.817275059557769 0.3540488214324797 -0.7458031722865025
1032 -0.1914399388992889 0.44968141526530486 -0.8224216550078872
1067 0.22445287690497845 -0.9495069349406356 0.6352049324482488
1069 -1.0208322562650254 0.6568966689191074 1.1932428212580934
1030 0.43301790624248443 0.03576497082385659 -0.15950883269662516
1036 0.3647683709321606 0.7529559475314587 -0.5290664286271978
1071 -0.795427934690482 0.847582137277723 0.6054262725843282
1073 0.903271200839967 1.1536117173847629 -0.07708563684619708
1034 -0.5685295528172513 -0.37749120037521633 0.9110021335344045
1040 -1.4224578910729313 -1.222726942525674 0.3729357155068497
1075 0.1966923171959559 0.45214057544124353 -1.1454180980383248
1077 -0.35568356862849887 -0.6138026753780702 0.9384208961210351
1038 0.32031589801233673 0.16038637904092823 0.39698404766652323
1079 0.258586832714452 -0.43662957096659194 -0.7305081994694879
1042 1.1716444695704016 1.9246967786418991 1.754043616498543
1044 -0.3939000861296875 0.3702073551198246 -0.9195921232585808
1081 0.8362500350013577 0.4029550312165794 0.19061103087530357
1083 -0.11921196733733672 0.9261844127843731 -1.5162425215144815
1046 1.3331075418841343 -0.31670709047910633 -0.06827878174329828
1048 0.12088495416089984 1.3187084313279276 0.019788328995394254
1085 -0.24527519337135512 1.032232411564809 -1.6939026927831407
1087 0.17949979731134208 -0.6417707613326609 1.02304598647826
1050 -1.5274365662185765 1.183797480221367 -0.017297540555222313
1052 -0.9626273802170212 -0.085761025162258 0.939495658441785
1089 0.4397991089993994 0.08938160039131687 -0.6958796747934082
1091 0.3691497847480012 0.00878154234227488 -0.05705638954346504
1054 -0.8085849761224834 0.09810500719305344 2.1852983812246602
1056 0.24515877330555733 0.37211549004031447 -0.15682938064359558
1093 0.2355197016529622 0.08302762853464023 0.2374235811809212
1095 -1.0139218992991315 0.8308210312101889 -0.15156373000009055
1058 0.5377691162171798 -0.7435915081572384 -0.6750000824260827
1060 -1.5251188690064903 1.2302578651953209 1.164433187174919
1097 0.4971174765693687 -0.5328773551707258 0.383687741921178
1099 -1.9108268972391145 -0.5219098624187383 -1.5565175631521684
1064 0.7663733802600168 -0.006854731872872825 0.8221930192108534
1101 0.08874934251346311 -0.34950004779964783 1.0281043092880489
1062 -0.8311148835746047 -1.232118885295103 0.4142653738949424
1068 1.2332208415773642 -0.07268380382706212 1.1811553676723157
1103 -0.6165177555544319 0.059399993240615595 0.36386934395127024
1105 1.1463697276153708 0.2476304814268116 -1.0890841332373473
1066 -0.8567695243256329 0.07361849573929752 -1.3414819947799814
1072 -0.12887421104064414 -0.6286490247340876 1.637668065598474
1107 0.14068076179351088 -0.4272703505384817 -1.419877517659039
1109 -1.4734107574391042 0.6730020158099406 -0.5411952169870864
1070 -0.005005973621835825 0.06681159403818314 -0.5043937114870573
1076 0.3802878348532525 -0.04459612918578394 0.9160046749858741
1111 -0.6088287821857457 0.5739253180741738 -0.7993834760079562
1113 -0.4328164427563209 -0.7760837972113397 -1.033167098602706
1074 -0.4453812756536841 -0.3263155004108367 0.36589306476517386
1080 -0.2574910035543226 -1.0028023196797748 -1.4405417080161793
1115 0.6563804708415587 -0.14064685291560863 0.12080172527417761
1117 -1.7612470335260901 0.03439441213986043 -0.08779338144354219
1078 -0.35063057896111033 -0.5438036628829811 0.42965515477584176
1119 1.2597065175831916 0.18121500571944538 -0.49857632399757346
1082 0.4255983907876208 -0.45347099715614725 -1.7158982350089413
1084 -0.16336125447147096 0.028685609675748354 1.2030461045814993
1121 -0.027165725308463912 -0.5262784808667662 0.3201355746922019
1123 0.7454742486687257 -0.45660960260163186 0.6107044210315697
1086 0.4493590923124523 -0.004367392482377969 0.8047543708519723
1088 -1.894531628513855 1.1275061991478526 0.641399065939744
1125 -1.8082416452043433 1.0692047582728912 -0.15940033968842665
1127 -0.28541991346503787 0.14083578363872198 -0.5078140072825112
1090 -0.03368256013329712 1.4661522404267178 -0.2368365922614261
1092 -0.3312356742705784 -0.7039599151404151 0.06765709821357199
1129 -1.1813865082502013 0.1755433912821965 0.18654904564324734
1131 0.8714653600109541 1.8100288100999302 0.4505468760832191
1094 0.9259232971661838 -1.447109676498496 0.05326396964760656
1096 -0.16966604698203488 0.12929538669742235 -0.7588535847364652
1133 -0.5313558425078723 1.2876181676148037 0.43410755597566086
1135 -0.7980727816290288 -0.041632022608571795 0.5412871769314702
1098 -0.33030311788834477 0.07866824508272229 0.43566946331581785
1100 1.824522046420135 -0.2211197255335426 0.5310908900139921
1137 -1.2387398011355284 0.20329491187732956 -0.8302019612493211
1139 0.33730893857946126 -0.311622785786703 -2.470008179430488
1104 1.2729716768046713 0.6426388498093192 2.2720386004330253
1141 1.0655105709326154 0.2509048726735497 1.829568155901241
1102 -0.1958136767214626 -1.1028279705512296 0.845372665908699
1108 -0.17927853233739993 -0.08845135495347178 1.5092773721472557
1143 -0.31612244092097774 -0.13477963141887195 -0.3990794326456781
1145 0.7484681803611468 0.951320107919652 -0.24974025750917334
1106 0.572864202891298 -1.6771033035792366 0.6090305692953246
1112 -1.296662039613063 -1.1374868650558234 -0.45609935767650495
1147 -1.4151351540533428 1.7211921614063852 1.1071126945856717
1149 0.7287505194830605 -1.491097978806931 0.19678266424522028
1110 1.9229278773825933 1.0111861746831796 -1.2636993626457007
1116 0.7421925512045848 -0.8739772067073521 0.9090071251699958
1151 1.3886864171029045 0.6179343595517431 0.1447712170153027
1153 -0.8873057619188656 1.4773418154558506 -0.22368340021309707
1114 -0.16526336961678434 -0.7098207883285081 -1.1733763936775088
1120 2.177659718004593 -0.14579175672589123 0.23964636362760097
1155 0.008981360208624183 0.41222959172565976 0.40504168714212424
1157 2.136357431162584 -0.4191051253163428 -0.45715056746965993
1118 0.11468059207903614 -0.2967780554988652 -0.9392272830870927
1159 1.3687223053364772 -1.2555821224136974 -0.5832165432675536
1122 -0.9108865159651343 0.5009413963103323 0.7336738539207243
1124 -2.7023826003358606 0.20051326910816097 -0.022349157177443103
1161 0.12528704880864447 -0.7402804562125204 -0.07222431558958375
1163 -0.49524349093845943 -0.3162466955717309 -0.7761762170032536
1126 -0.6532859844653561 0.8059900105579599 -0.16232903646890945
1128 -0.8460193466878457 0.9935423296989699 -1.069963577363449
1165 1.1393608662254395 1.2478981813918257 -0.8830714945517323
1167 -1.1609632727936843 0.8344539926642497 -1.164029605165521
1130 -0.9756490425440433 0.10362860180361454 -0.42240220078261936
1132 -0.6654053299941268 -0.4593823000304612 0.08970544450231283
1169 0.01898943277414372 0.6865625274376823 -1.0124305960391953
1171 0.5514364163873583 -0.4200609585421793 -1.4701133215314823
1134 -0.6008789927265217 -0.567010656776232 -0.5691607542586654
1136 -0.11889356790085501 0.009364831576221255 -0.20661799128608166
1173 0.870253930058957 -1.0988046101563873 0.9693553404324554
1175 0.2594109566281738 -1.4783207147888584 -1.1321439537164062
1138 1.289511740851858 0.4704808925534562 -0.909598862059578
1140 0.2749358206034218 -1.0709705155242384 0.5325579349625092
1177 -1.1835387636084833 -0.3662430306539895 0.9219998726623023
1179 -1.142635186505165 0.4603221392710587 -0.3219455906381595
1144 -0.2516743165347161 0.030608990832186406 0.430766035014614
1181 0.19664030648460615 0.5655291445996431 -0.49476148484742416
1142 -0.13013920549296135 1.043013191829105 -0.6912406563421459
1148 0.48611619251898225 2.100159717046953 -0.7325929617431207
1183 1.0161670694797316 -1.3032148139630837 0.16179215661516053
1185 -1.2266757340822974 -0.19575035965669596 -0.16433340082472941
1146 1.1898880171596533 -0.6619426692601244 -0.21550938268194378
1152 0.8945908397022213 -0.5198521914163636 0.1493500316381347
1187 -0.8544684963059892 -0.48031717271954383 -0.6302669724343544
1189 -0.659144462705368 0.5848075959709504 1.1618559736011873
1150 -0.45679778746017824 0.2382041244856722 0.7459406352243336
1156 -0.44154954367469634 -0.35180103475606267 0.8476669857265322
1191 -0.6842798089201344 1.7225969911522518 2.480184440067714
1193 -0.23148842841323922 -0.09162538872308298 0.14186472451460172
1154 1.2573140006006647 -0.3056864574287302 0.19600329922946397
1160 -1.0066558954251645 0.3548020167768768 -1.0299038575659367
1195 -0.5295593259419195 0.10538383239031252 -0.7617206384091294
1197 -0.7237111655719629 0.11906912059253941 -0.37950721503500195
1158 -0.08273636485883112 0.5412104620211949 -0.3264534990089842
1199 0.47623287511707624 0.10482235588677341 0.45469434956159893
1162 0.8364877765525633 -0.12081655804172826 -0.43786075749071957
1164 0.1236493434219565 -0.7688355383336456 -0.4540479063408637
1166 -0.059451870090197506 0.23622819544189694 0.20342060530520623
1168 0.08927930363610065 0.7518331434240069 -1.18562854592545
1170 -0.45698255462876236 -0.3931432641633903 -0.3432307974444371
1172 0.7150386446819034 0.1328136193108754 -0.613508905899145
1174 0.4281651430167505 -0.5643492494251177 0.08751023051839094
1176 1.2867709532165499 1.5470492814599897 0.13491919130847663
1178 -0.3449383419793349 1.594066084253197 -1.336690975576003
1180 1.0307146116051105 0.1789329752749445 0.06301762956827747
1184 0.2030829265024531 0.22434854240764174 0.14870813112927464
1182 -0.4256774376441085 -0.039007541989050556 -0.5929632320565262
1188 0.05719171562316557 0.7037216055824373 1.1912764180384325
1186 -0.1457969046653827 -0.16676519118569721 -0.2368874506101768
1192 1.2625659846291675 -1.0004956167669685 -0.4295098300001592
1190 -0.5073764871394316 -1.2718145807288168 -2.320613458265766
1196 -0.5312874436382793 -0.349719556263124 0.647366098230839
1194 -0.0005934350958821943 0.44392475373975515 0.03129283226819345
1200 -0.5376617168487701 2.0588576030643915 0.7931009791968842
1198 0.8488112130711738 0.8089592880568132 0.2840925998972194
1201 -0.1072989203818834 -0.8164536040689491 -0.6797925183343008
1202 0.9036753355893197 0.2096274241882094 0.721118401833474
1203 0.46219927001396477 -0.12760339780317378 0.8043456392796196
1204 -0.26835101835494113 0.01261372252404594 1.1491771489743867
1205 -0.46157573319428724 0.14364061040369877 -2.6079244256304945
1206 0.7593741651185192 -0.14217302316148722 0.04382975464325917
1207 0.9425057958705617 0.9341436741704469 -0.010636256281447126
1208 -1.0888218281288846 0.8323996807443468 1.6697978608393065
1209 0.29906227282341663 -0.8224688419972427 0.47347683756304115
1210 -0.23911942739225833 1.3163169342184486 -0.568984619135159
1211 -1.8421455571438672 0.24532444738831963 0.57949201627761
1212 0.31339175924321117 -0.1836001089373407 0.12392151355551195
1213 0.5544288237198378 -0.9275856872974761 0.4694471059127583
1214 -0.5576484047758475 0.024623948243194554 0.6663350392578957
1215 -0.6785197599231505 -0.6274616024554048 0.7205162578214357
1216 -0.74725502289696 -2.439333909819443 0.334374302780771
1217 0.08166535282017201 -0.5331717149964718 0.3923586673477392
1218 -1.4885121824457141 0.4109878577806974 -1.6220872682882483
1219 -0.8158440911370544 0.05184249847747587 0.3985823760728401
1220 -0.8824834778052855 -0.3582047544985967 -0.09390379710273045
1221 0.9391851861587976 -0.09529540127638766 -2.0519910868255593
1224 0.8331742971279429 1.1122962184782335 0.2519225401484815
1222 -0.09671466036095751 -0.014999662958441837 0.8517077082042638
1223 0.9607843036020836 -0.9389093156552009 0.3218671114119803
1225 -2.764424033337706 -1.3899730889814186 0.7052538102155488
1228 -0.6151648725165916 0.020609992043700006 -1.0277659394285001
1226 0.5741298507770183 0.48984049647646993 -0.026889379293758068
1227 -0.7255157465929848 0.140376606063433 -0.5044756008510168
1229 0.0581834186051971 -0.7232224331714399 1.066807878095721
1232 -0.3551418058823699 0.014964022120829527 0.8804886990895496
1230 0.10796754607706077 -0.6769099079320975 0.3717722622222937
1231 -0.9262803069844837 -0.9208038979920562 -0.20358715473940558
1233 -0.7899623760156168 1.0554744514839451 -0.6226386101191503
1236 -0.42936681317211334 -0.3584737198878072 1.0821299502538573
1234 0.4478174354892937 -0.5719381106562532 0.15032465621098126
1235 0.4666046337949763 0.17855846014146068 0.38449431671655837
1237 0.7835978380696126 -1.0369744469571098 0.3579600368641904
1240 1.7505335527562325 -0.21363595050759343 -1.1137600826203216
1238 -1.6359269483191585 1.0651570498178426 -0.3471255208918641
1239 -0.24377440816629445 -0.5802138370954519 -1.164078391692257
1241 2.051151150656528 -0.7494086240189879 0.06751329477739632
1242 -0.7069140054967863 0.11837078006479913 0.7769012392795563
1243 0.45815638385912766 -0.08873420917413687 -1.3961372368033338
1244 -0.2428416773612363 0.3419562880684161 -1.1054622674958836
1245 0.5221909795951599 -0.3037848279641929 -0.5403789629491715
1246 -0.22818294660103974 0.07751101817368519 0.5842256690941426
1247 0.0072870475978742116 -0.7126517342707374 -1.2842146520996123
1248 2.1308357594911964 0.3696474243378091 -0.4118111130633591
1249 -0.8215322169619786 -1.6298657294435113 0.19703819319774446
1250 -0.11885427863112394 -0.6507288061618686 0.44373200809692426
1251 1.5322011252780228 -1.4295687659403755 -0.6413881049033113
1252 -0.9817773817988679 0.14761741124945532 -0.5475472027960354
1253 -1.3876148472319076 0.7237026424525478 0.8371774733709825
1254 0.8403506593545251 1.7055952456050396 -0.7101944831001196
1255 -1.5142384949671064 -0.7340591281964501 0.575037362710992
1256 -0.22313928658315893 0.8911087007433813 -0.5916554477049274
1257 0.23356019409154988 1.5700016686146763 0.11544047000881799
1258 0.037824998379828514 0.5210891210753837 0.26697038293066266
1259 1.4861086668074044 0.550553594758409 0.20135469875347758
1260 0.31848297180198315 -0.9269689754785255 -0.028511202482030148
1261 0.6659717553914138 -0.10396374509168149 -0.5389417281361765
1264 -2.2831305954795065 -0.6892273049956809 -0.24722344171667612
1262 -0.19473046190848373 0.8471326561300053 -0.07595055099450067
1263 -0.24981478775127447 1.2009784054661814 0.1890515454084326
1265 0.8680542373430868 1.3715696507373112 -0.0795277787339506
1268 -0.9404291990088586 1.095640752732656 1.134433985079014
1266 0.8418241342925382 0.4772477714501429 -0.13958274557698325
1267 0.3503310833376491 0.662921688438482 0.07980476862177434
1269 -0.876982830855631 0.035554066692966874 0.1802426678728447
1272 -0.08681261799176718 -0.35181848814867667 0.10602403923205642
1270 -0.1927847082597233 -0.3889750979383296 -1.8198197188434597
1271 -0.1320647364553131 -0.3392688642666154 -1.2752557093877075
1273 1.2645063575047002 -0.08351313745955657 -0.7948179927392138
1276 0.026880919632893244 -1.1630560962531566 0.3178082265390011
1274 0.06094326688439532 0.22407759802832347 0.6809076651115799
1275 -0.572803826906135 1.410184505276012 -1.1491611333535514
1277 0.8586914329584564 -1.2750334551738507 1.348992717236024
1280 0.9252247108890601 0.1925741359899041 0.6056850134081374
1278 -0.5217643669303267 0.5742744303010103 0.330269177390417
1279 0.5118520473660879 0.10328850046803131 0.7248574105670758
1281 0.5145292590316572 -0.5135360163938384 -1.5104628631508368
1282 -0.9559545738631361 0.6056421318486148 -0.9840708461388484
1283 -0.40749783421097624 0.7829531029911533 -0.8122804910728724
1284 1.1207847294781503 0.4589897717683524 0.20848270727726836
1285 2.1772816479428085 -0.7254448247071582 0.14479908555060914
1286 -1.7984610716261575 -0.17523444197678673 0.07501944540202005
1287 1.1826944062080158 -0.7501603435221023 0.9281337973088096
1288 -0.5089291726618996 0.5425764307565223 0.4475688087312496
1289 -0.24835630963045904 -0.12367530273195504 0.3328685743966121
1290 0.7630082390866312 -2.707621743230389 0.6213184843161471
1291 -1.4709186607741258 0.23611754854140138 -0.21734452037309088
1292 -0.2263297986488486 0.16631523286069147 0.016793181566638324
1293 -1.1743952768430321 1.6414953292124637 0.21199878862347768
1294 1.0979381865385922 -1.2336295505798043 -0.4141827012080214
1295 0.340340491424234 0.5316027215299104 -0.7641515208039534
1296 -0.17527355566475955 0.4491566776126986 1.0530208873344824
1297 0.3682008220907798 0.4885534589165381 -1.0175439193650573
1298 -0.9673736996707687 0.1043598197513848 -0.007995309156745872
1299 -0.059646310886083485 -0.8522190357638925 0.8065485755070584
1300 0.24535238823059086 -0.7906030709020115 0.932444376964879
1301 -0.8787503511369975 0.5721305064594783 -0.18884702416187932
1304 0.13718518510006422 -0.36507109461859916 -0.9279778508203023
1302 0.5200582813340393 0.15562964271638396 -0.9757585997820241
1303 0.11818183883840062 -0.8667120196169258 0.6374873516722036
1305 0.8589143768662993 -0.2859974267468478 0.3329593655003032
1308 -0.6566842177966272 1.7252175932171074 -0.0487796563204493
1306 -1.092736902690961 0.1610587017686424 -0.3789478087362388
1307 -0.13556633908316532 1.887119137551594 -0.8207983830615114
1309 0.8591630604607214 1.3311000788667127 0.816114129377556
1312 2.0215911645978686 -0.549096621157075 0.885771463209515
1310 0.5783202893698184 0.13463723832691618 -1.0522021370295007
1311 0.3673796916844132 0.6285108524644697 1.1641692935930317
1313 -0.05339745128380307 0.16919475180019977 1.3486450112256223
1316 -0.7366105670059411 -1.0245782763733788 0.5713755847415593
1314 -0.41486497632186586 0.1277929322664684 0.12506623013569626
1315 2.536067888294437 -0.3721513998451676 -0.9109063292189714
1317 -1.7452976542759997 -0.9652098129398249 1.1557537139354708
1320 0.858997793479627 1.182587001359994 -0.7675330265672179
1318 1.4689097688951893 -0.0582165815527232 0.08402265716753353
1319 1.211206400448775 0.3001572484047533 -0.22172358929869543
1321 0.7468939007032072 -1.597275405124508 1.68848307955319
1322 0.1376668807949824 -0.12997555151485388 -0.1339575629244212
1323 -0.6852804646653871 0.43675448428032326 0.11078637483169072
1324 1.734839952665425 0.23554896982695003 -1.0720846346173316
1325 -1.1708233708712128 -0.6672487737412397 -0.3995630489147419
1326 -0.813711667157611 -0.15133089637538266 1.0841266783912658
1327 0.28753952926268106 -0.054491253675288294 -0.011233891324730048
1328 0.0518336938265443 -0.35475598098553274 0.8792591738691805
1329 0.924103214130826 0.01752397726868138 0.1358612678874197
1330 1.149321035055922 1.0514263848180188 -1.1858238738756077
1331 0.4172041372771137 0.05971200028791836 -0.15662943055780512
1332 0.917519083127682 0.7590174325762091 -0.9135687658788754
1333 -0.3451179397177658 -2.4055156024759627 0.7185541411156874
1334 -0.3285756100234585 0.16907073814980436 -0.50684885644278
1335 0.48485424373921504 -1.5081512050745645 -0.01441198860585615
1336 -0.387212196700359 0.8810616524152819 -1.01352999642764
1337 0.8465616375960405 0.5146654494605821 0.47743761064698775
1338 0.5264195908104655 -0.918428708034364 -0.2534676413824496
1339 -0.4984230529782171 0.217124924446585 -1.1766339594821398
1340 0.10650807171972804 0.962118357416013 -0.22312719812286758
1341 0.8763466048689768 -0.7664840964656953 -2.1504871441699587
1344 1.043722806277349 -1.3224643189874776 -0.22205398112056435
1342 0.5111358875977815 -0.7348065251265403 0.6507735023293852
1343 -0.013088273484522975 0.5681993881415922 1.4672856954997144
1345 -1.2867494381265783 0.258636626604145 0.5212282339928734
1348 1.110258588212912 -1.139456222770703 -0.32959501473744596
1346 0.8802924883703512 0.3437517276742431 -1.3367212017543588
1347 -1.0549194066678336 -0.14690088703357906 1.3805938289593314
1349 0.8136015328953639 1.3997492467864687 -0.2536633289507318
1352 0.09972445195396595 0.10526230669100584 0.28785666493265155
1350 -0.8074070663413339 0.1835198056509641 -0.8953393284376
1351 -0.2198454285262919 -0.5245418529490758 -0.478682280106227
1353 0.34467175776029685 -0.5286242042505465 -0.11812025088750784
1356 -1.182856028236441 1.5181893821300574 0.04998017883632894
1354 -1.4896979699194934 -1.6376187646950993 -1.5887456589575537
1355 0.18858156175576793 0.30858694325552066 -0.2357529299294512
1357 -0.5773370529578247 1.3367742449763456 1.1523328700805424
1360 1.8346056875235826 -0.8695483769842195 0.13101239589057073
1358 0.40821017134364573 0.7531744066986464 -0.4002930763322076
1359 0.7546743210620406 -0.7827732269859767 0.3782847515825703
1361 1.2008270879926457 0.23172775544698437 -0.10673762256806675
1362 1.3589628086175858 -1.0967343915942347 -0.30760718000337994
1363 0.7251757403539006 1.1859722851553445 -1.0672834144404542
1364 -0.013466409062514171 1.1910122748090979 0.5194710599745553
1365 -0.8961305170524406 -0.840066579627217 -0.1490696084032419
1366 -0.39892691099131244 0.6235948740195938 0.6598760933145668
1367 -0.679606334112553 0.4745895928742201 -1.1575806465266893
1368 0.6619949093835565 0.46102966079468155 -0.7531250818554536
1369 0.23261062798360632 0.0559023897182363 -0.8413886778564251
1370 0.14771967400499375 0.5457594147521997 1.8665413250369327
1371 -0.4338966834865213 -1.319631205163414 -1.0688562578512348
1372 -0.4614358519419839 -0.6761246575132901 -0.014170385010386656
1373 -1.6512431113946935 2.274401754195185 0.50880864956869
1374 0.6603025402512699 2.553754227726354 0.405266451297921
1375 -1.4167807740985336 0.11342366516166721 -0.15579565150903063
1376 0.10018496684957517 0.5667131709214829 0.8413636260840913
1377 -0.17126601396594962 -0.2083926647903863 0.11741533718183489
1378 0.8220023997044308 0.2161576003952448 -0.44244653419495256
1379 0.18396491093786976 -0.29338832612414373 0.15859424856387971
1380 0.34377049273082044 -0.21231778165265353 1.4675492314687109
1381 0.10713446966462412 0.08320361344335414 -0.19943370178382408
1384 -0.7824229592111998 0.18658732844609222 0.2505970055236761
1382 -1.0718103646638477 -1.298831264757772 1.2135501143405196
1383 0.49454599799339116 -1.0971164516032852 -0.7230065510879171
1385 0.2509981947294125 -0.20339598350229182 -0.2660899089127418
1388 -1.535706482263541 0.8273382476717325 -0.07351468435491332
1386 1.0488486218266095 -1.4881043899796982 -0.8617469636774614
1387 1.1542999208373195 2.486648186754497 -0.47862629164406034
1389 0.7800421934635086 -0.8942703469974285 -1.3523363287788357
1392 0.015178574670055633 -0.5211145030405814 -0.8702251995255712
1390 -0.8111671052108643 -0.7500819565166076 1.1488049170692518
1391 0.798100628793488 0.7772062715577971 -1.3259242430716134
1393 1.5645156774706581 1.1340229568351994 1.3177495662703198
1396 -0.20793578192444226 -1.0170766763829622 0.8618036204035473
1394 -1.0670363784912023 0.3302039612493478 -0.1139338002635504
1395 -0.9810411721018123 -1.0281511883516208 -0.5284601317431629
1397 0.17029009171223494 -0.10997611119182502 1.3067425928266643
1400 0.2710425272853765 -0.6263861549403904 0.32781739084427225
1398 -0.635855397127902 -0.16577443202401568 -0.6049950733722631
1399 -0.06095070395608567 -0.801557816487908 -0.45642670529227647
1401 -0.33886808480506503 -0.7110886037894127 0.11006044155248298
1403 0.3935886936903522 -0.2892839580008813 0.16458585257520583
1405 -0.3005952734853211 0.7363037226358184 -0.7419363971611024
1407 0.3384994120793469 -0.8076700281902776 -0.3039254891916632
1409 0.4136475508625841 0.16759611315945852 -1.7054959579825937
1411 0.4297743776641471 0.2483653432067641 -0.20575571262869763
1413 -0.0033556384212267143 -0.24616835639692147 0.2818453270260982
1415 -0.22232301274914545 1.2167669385676136 -1.320789184564969
1417 -0.9829387747775812 -0.5334022642968809 -0.048434725015373256
1419 -1.157152944848698 -1.7300196453866508 -0.14807501710905013
1421 0.23403912621737158 -0.13887385145204362 0.14003039910281653
1423 -0.4160998221329587 0.4070222699308299 -0.27233589920021917
1425 0.3065422382241475 0.7985639377809307 -0.40418730298973565
1427 0.7660326941867929 1.7024095892911997 0.5808961033428455
1429 -1.8822453287375118 0.46895206492499514 -0.11790561486767204
1431 0.8280500281326011 -0.0637797931184539 -0.10265470533376532
1433 -0.4580891039763211 -1.2699207156932824 0.5276985928002549
1435 1.8578195693303572 -0.23798062574786435 -0.32894429882193016
1437 -0.40876659142079763 -0.052085100498445044 -0.5508558864099351
1439 0.6370897361080563 0.21340011065211284 -0.5222821642698656
1402 0.20352059431661038 0.44923729535431145 0.07732281228947795
1404 -0.7953649870242541 0.0714020856960352 -1.5406956761221646
1441 0.5951786585678008 0.49484448834195865 0.49037304891483013
1443 -0.01786714877993974 -0.3200987501227007 0.28539295327868053
1406 -1.0530348319629954 -0.03388181606099373 -1.7594842982375989
1408 0.8841912359036764 -1.8579967464454723 0.26461793113892695
1445 -0.5580232769666097 0.5537567033279416 -0.09621691691541079
1447 -0.5886894210641759 -0.4459090241365125 0.5175932472242004
1410 -0.17011996128750434 1.0930445951350027 0.030747178037240808
1412 0.36606794383757124 0.06026791060857653 -0.04606077817234104
1449 -0.42448062670702524 -0.6784270033843826 -0.672036957953177
1451 -0.7910187309719473 -0.9727145425706776 -0.7783345337746237
1414 -0.3910318691412754 -0.09216497793806967 0.2878031626197062
1416 -0.36195282827344705 0.12074745582470067 -0.3518005711040343
1453 -0.5756592926051186 -1.592742659673831 0.9780348143061501
1455 1.299499768810604 -0.5175599077580394 0.6938270556053368
1418 0.4990609804236858 0.4616423111013851 0.4766968250009303
1420 -0.5259351966304203 -1.1453926630428881 0.6805349466056756
1457 1.0532758488988205 0.267006733142555 1.3254493417442421
1459 -0.8418628243115841 1.0946073576351634 0.8946712205548013
1424 -0.9619769275699215 0.8839032677039299 0.64210836365219
1461 0.7470048783427455 -0.1527094469711989 0.16365985972862357
1422 0.782470950071106 0.0887664947583729 1.0024783838393543
1428 0.7737342940145023 -0.6095148510080086 -1.2802777799668976
1463 0.05953151269860714 0.39183631714217526 -0.0808476667288467
1465 -0.4601730385261853 0.027285598564444246 0.11842678735103093
1426 1.5900364444310646 1.0360788057779113 -0.8065219050930207
1432 0.3735740095331831 1.085288739641811 0.07220568193390899
1467 -0.06914367229084478 1.1754654652428966 0.1115027906531968
1469 -0.1354804754471248 0.6406118873618069 0.5180156326757068
1430 1.287324373568926 0.03495513531693742 0.23539865279360553
1436 0.8391614595681186 1.3636717737208377 -0.10841161434012561
1471 -0.5396210101704589 1.0491069334950445 0.10625365489981942
1473 0.07845978991648242 -0.2393070769565115 0.5502610890305982
1434 1.1013332870044688 -0.8280882053493765 0.11807958026983456
1440 1.0759925393122174 -1.638572880174237 0.5427855211891296
1475 -1.0047683111494923 1.2689139078806673 0.9769376678681961
1477 -0.22218473705794176 0.12094120446127017 -0.016568242298021292
1438 0.6536343847150423 -0.6213801226512736 0.04383326747809303
1479 0.12309476507911649 -0.19413911188972846 -1.194567890274829
1442 1.2545013855948508 -0.19413605151583363 0.011319652878513815
1444 -0.032959229550332036 0.16035359646963876 0.8915815815925096
1481 1.1578215040483681 0.5753185383490157 0.24982012212872953
1483 -0.5513410567372772 0.22338247348281498 -0.22712675941145738
1446 0.7583327739911713 -0.13738406905152245 0.5496937235882923
1448 -2.0722002034865628 0.24134900994671027 -1.5214139515982104
1485 -1.6646209538020627 0.12963626482443108 0.5302188409048932
1487 0.730614572914971 0.0845672290925886 1.1793108030199901
1450 -0.5663396584667661 -0.5953460327126093 0.01901479051055352
1452 -0.6196015189925246 -0.971718310167601 -0.5970035467566926
1489 -1.1018064231132962 -0.30973357039662347 0.5183164216644159
1491 -0.1476778113750576 -0.22668245957888244 1.0119448604968104
1454 0.3821394977986338 -0.5417561352642635 -0.49703882031287644
1456 1.2661516071788361 0.5850477639826719 0.48739234974824575
1493 -0.7574407226236842 1.7080174814604263 0.36787175023005525
1495 -0.14933224640416684 -0.534640016393737 -0.6748211363281424
1458 -0.29536228043520857 -0.5778757049893342 0.4232747534179955
1460 0.7192663650484017 0.9289250421908184 -0.601530551417126
1497 -0.8057387537536368 -0.7109197170723197 0.2991485382212291
1499 1.160964372930876 -0.7697450288203128 -0.5124800154501007
1464 1.565630177772706 0.9146481046470956 0.5710410701855664
1501 0.02441184787200476 1.1511218610423586 -0.03368287032354282
1462 -0.5724186824388633 1.0840811325848445 -0.10836795126093696
1468 -0.18241961998326803 -0.24468394495544235 -0.7075636671412201
1503 -0.36806831747500585 0.12586215636085837 -0.056417072592770554
1505 -0.8387504622698259 -0.023297680603209674 0.7509119029739036
1466 0.19414211091079114 0.22034766345872175 -0.7600051001358403
1472 0.3264767221268935 -1.301079088823746 1.0562302072965168
1507 0.7154023367471677 0.9514851858734787 -0.24235485909920082
1509 1.8945361215622518 0.23214861023115058 0.18008099059335136
1470 0.27279104095987144 0.33648598539069763 -0.8211305332420781
1476 -0.577647314188723 2.018720836771391 -0.48006395613169556
1511 -0.012698045168612171 -0.2084587807023294 0.2677544180540925
1513 0.09562036146876231 0.17487637989290833 -0.7427298134175192
1474 -1.7003090549592628 -0.10441717189082314 0.814437708120306
1480 -1.4355975695169665 -0.43113348413812824 0.10558809278072748
1515 0.9196555290607833 -0.06828925494879604 0.18078761393935044
1517 -0.1850840611431472 -0.6922325103210488 -1.5449854131341978
1478 -0.5101048426930567 2.3414136525182117 1.8376215407477894
1519 -0.8411440893596558 -1.7262320290929671 -1.4846086785495047
1482 -1.0839619189708036 -0.3682509127431061 0.16920352359249183
1484 0.5402261407541897 0.3994507977651714 -1.1139945474754551
1521 -0.2741961922108503 -0.8779144038386996 0.5024005339180656
1523 -1.2917846301112426 0.88009267220573 -0.4379777404537949
1486 0.012536411516044996 0.4331162709094819 0.08742594319491492
1488 0.42918563787474223 -0.39433583015529405 0.8547990301153506
1525 -0.2991843942746586 0.6023257434647354 -0.3813879748269695
1527 0.16144135915678282 0.9152354471101347 -0.891163718661377
1490 -0.17676271895038753 0.8622782170082065 0.6379143585030136
1492 0.6326182764463657 1.430435181217729 0.6858000369950943
1529 0.4038182965576267 1.421657875077326 -0.6480105569325229
1531 -1.093231947558465 2.014722140474086 1.0096566365715514
1494 -0.9244555366351455 0.07889228417683303 -1.1976248674688585
1496 -1.1155312494159029 0.9387192346948118 0.08054129521172591
1533 0.10138682699473778 0.5404498158869533 -1.2145934479195502
1535 -0.05976224754798233 -0.9006284884738269 -0.4049314642959715
1498 0.16460177234199427 1.5065108909955012 -0.2467946539847262
1500 1.5406166789274662 0.14789066228647926 0.9345312139756865
1537 1.3779650829324201 -0.8024024753261819 0.11801056173776597
1539 -0.5751438649251449 -0.942006300041258 0.03358062617003349
1504 0.0008468359866631858 0.39644301039246366 1.3929315285436135
1541 -1.7744878149599548 0.7832963719477395 -0.9539752649738842
1502 0.399084230911817 0.014741282712921543 -0.8001142592740711
1508 -0.9235120315781389 -0.07401940356921606 -0.5351502362691701
1543 1.181414107176444 -0.4583053159330843 -0.5243919288105907
1545 0.26239088523234166 -0.28780553901908623 1.6401114908976242
1506 -0.19989718947912635 0.3554354985225345 0.4888952793532621
1512 -0.3660992932998351 0.250142225462134 -2.2063610576395156
1547 -0.43117076569838525 0.060741399025865304 -0.5447498676945368
1549 -1.2423607908874652 -1.0502086293669408 0.06047001561860967
1510 -0.6515596675271834 -1.1515664904631069 1.2981730007118626
1516 -0.5152413794717917 0.7547138362354734 -0.5624441445541374
1551 -0.6590743283077627 -0.03453885053565179 0.4628379497017185
1553 1.1597352797148894 -0.021380328927565435 -0.2033002477066013
1514 -0.8158965032130614 0.8917306028277107 -0.7558111684893759
1520 0.6370743671101907 -1.025746918535473 -1.3623475613588947
1555 0.6267278451439945 -0.37573399270475255 -0.8708039542862642
1557 0.2655169903948645 -0.6505013731393322 0.8237631265372738
1518 -0.3891530108754233 1.0017772720420184 0.04262048428087325
1559 -1.3842181633472048 -0.18674080971339424 -0.6618807009867638
1522 0.4697497203764169 -0.34064814875863725 -0.40151054506542755
1524 1.5270976159059948 -0.9236587886600827 -0.08506080839779048
1561 0.1915421544150848 1.1877917297336265 -1.2485050035198015
1563 -0.2737711754558413 0.3164388477436913 -0.43909961600065484
1526 -0.12979486840387186 -0.14126818897485377 -1.319804451100934
1528 -0.4239225704225098 0.15055870015307815 1.5849336755306032
1565 -0.27250424932049205 -0.21768017376480697 -0.192560575032447
1567 0.1642252642302113 -0.9632208305091247 -0.5160314318968521
1530 -0.05446315005130971 -0.22778952811603959 0.06330600462673283
1532 0.5081210571416791 1.5782393421562442 -0.07383467867176356
1569 0.09659958120647488 0.5449203024732445 0.33027914316587453
1571 -0.8740532842029235 -0.09523335438647139 0.06173504880938814
1534 -0.3814005685092685 -1.4467281062376407 -0.4095971893642347
1536 -0.21467098403000598 0.7325246710151685 0.34483569877289205
1573 0.1468529740417072 -0.23766877372702838 -1.7045551374560028
1575 -0.04272633919008123 -0.5997149533669418 -0.2598139333243487
1538 0.3302511569168187 -0.5576276318481628 -2.1029348450508696
1540 0.12287691182687116 1.29896549620518 -0.5994581774753399
1577 1.3324888282356364 0.9289604405309866 1.2657377543879809
1579 -0.39630896206053906 -0.49876664998887416 0.5820078367887452
1544 -0.28897766127642965 0.5434862797853934 -0.8083210171913604
1581 -0.17913796619113315 -0.6057022752586824 -1.0425910175543616
1542 0.5338852953072959 -0.037673145223418227 -0.011809123551893366
1548 0.3779110305212406 -0.509524625737759 -0.020110099949185396
1583 -0.05118084053848537 0.12167740333043259 -1.9321037446213758
1585 -0.9832880853060971 0.42312245965885426 -0.831043579783665
1546 -0.9200866434096807 1.0451557526948758 0.2629837806681203
1552 1.2623026318627613 -0.8386743402686953 -0.4179373577419616
1587 -0.45952731438328265 0.2901687663241345 0.3080504052108716
1589 1.4394337553776524 0.5391575437773584 -0.5032113100852942
1550 -0.3620761958505018 0.6705035397761767 0.36531621248024887
1556 -0.5249305233678659 -0.023266853401284242 -0.23560268884673877
1591 -0.6720174319455411 0.34815245353340113 -0.017294241748088145
1593 0.24301203439387892 1.5867162617362336 0.611956359106342
1554 2.064014562964604 1.081394703011322 -0.9609770295180494
1560 -0.14205831788054024 1.142729962364621 1.3911843198926894
1595 -0.26467341519739856 -0.5828009248260464 -1.493436876876666
1597 -0.2699225587656455 -0.6825463014835299 0.36764097339153634
1558 -0.057727930803235364 0.3882908299430326 -0.5754675901447014
1599 1.805016878082078 -0.5023576573267567 0.607394683733197
1562 0.0010575212992490687 -0.6045264805861738 1.6862968420463738
1564 0.3944635403659745 -0.11071303797423995 1.133108783033247
1566 0.08050928984547964 -0.9280593235055616 -1.1672289753534772
1568 -1.9069181944044307 1.3525702172007263 0.08590718185566737
1570 -1.3452115559511264 -0.22796090314513212 -0.9120728417067449
1572 -1.5971914832999734 1.5243836598014882 -0.19551903338689905
1574 -0.8323970296086097 -1.095864633009122 0.3700314992356888
1576 0.6410285447447325 -0.9708056679224565 -0.1333090937567617
1578 1.1829291744789914 0.47477719840173854 -0.17435400063639564
1580 -0.9837395488058237 -1.7521285095322146 0.2989352810965246
1584 -0.4493188129482678 -1.1762194768789138 -0.13820398653418617
1582 0.07773992047238269 0.0007164694806864949 0.13123251397965727
1588 -0.7573021621426849 0.46659179922500377 -1.9753651402403773
1586 -0.12897138317616996 -1.2421089735414388 -0.6624993370206874
1592 0.31513676039043503 0.9450465150916038 0.04480803234997087
1590 -0.5521741462183581 -0.9495350072204222 0.23028643976297672
1596 0.1900171458857671 0.17904057137852614 -0.11457830941184434
1594 0.9246951012666911 -1.9593784999353958 0.7175482317988209
1600 0.5977870755962015 0.15045043789346466 0.1834353504408688
1598 -0.9888042597365674 0.6544880211914045 -1.3503177903497952
1601 -0.7411190455242401 -0.21169913848584623 -0.8783418415381985
1602 -0.3227680783257757 -0.09472568311584736 -0.23253466333585993
1603 -1.5594515658167618 0.09986148084429812 0.7780851685164599
1604 0.3483040798208111 -0.2709148058308154 0.8424507226060556
1605 1.8541940424348597 -0.16561441646229885 1.2638932003655783
1606 0.1661699170203328 -0.1023244481373421 -0.6460959367907463
1607 -1.7109113324685972 0.2551189432564099 0.08659123919456654
1608 0.23995768256975972 -0.40576761205324474 -0.28423756881804135
1609 0.5432195213876941 1.12365325661312 -1.0338121468119217
1610 0.8113188151657578 0.33267828110687714 0.9763503740076009
1611 1.0091879298989106 -0.8441397344888167 -1.4952812812431289
1612 0.5251333249022485 0.12087769740755275 0.752731765548386
1613 1.1696810751128388 -1.1731032586454384 -0.18879906589412362
1614 -0.6207093035670808 -0.3027890675856724 0.7050646770689659
1615 -0.5027896887506867 0.7028604644884566 0.2118446298428367
1616 0.10747720301234684 -0.8995535963287878 0.43169022900755366
1617 -0.3136744666057035 -0.022968477802455426 -0.44947401103356716
1618 -1.9648709383948586 -0.09347704478267334 0.43133099212143367
1619 0.5356435410117183 0.25971614747078675 0.4711562666673256
1620 -1.273456382952961 -0.4776298630167085 -0.0340657584465697
1621 0.5252060950634458 -0.6049951424808574 1.6706675882360786
1624 -0.4482883208454756 -0.458685310693167 -0.07711272133071342
1622 0.0300991644652028 -2.115522429368766 0.8494514344069454
1623 -0.016761563481658102 0.31101256385726783 0.4625698084328981
1625 -0.1475223454449061 0.3421198745563843 0.4040496178900915
1628 1.2433997281212223 -0.18745687838651448 0.07408997792438982
1626 -0.4806164398176751 0.5883765879833677 -0.6114165262517041
1627 -0.41743105761006694 -0.48058748606500207 -1.1743153654571423
1629 0.43469989680857163 -0.2565496646988182 -0.14951453865902983
1632 1.035645248183214 0.5863425337465462 0.202310235250155
1630 1.4748655353126792 -0.39961027920618175 0.5905562493204268
1631 1.2745708866024619 1.655404576122008 0.12224128239930897
1633 1.1399122674893014 -0.036778462801208334 0.744479994411023
1636 1.1726708081320092 -0.27338946872913494 -1.239359436698954
1634 -0.06916785358667858 -2.0483853718078695 -0.43551764692156153
1635 0.9493812523907095 0.4268285338525366 -0.07217844124694367
1637 1.4167146437132636 0.221841623625657 -0.21607534861834693
1640 2.2167975924807575 1.845027392942499 0.25703119009949477
1638 1.437100462798701 0.3771181890471921 0.011793568407379308
1639 -0.7658265735756005 -0.029126536514231076 0.12857307682461955
1641 0.23608224257161523 -0.7129432921398695 -0.4688828696869572
1642 -0.6924999721760318 0.3951556150915178 0.313807256415857
1643 1.347247726021724 -0.8090782531537803 0.6454897779237702
1644 -0.567001292314955 -2.0701299608119488 0.7277492760019757
1645 -1.8168763118069817 -0.6877073632772658 1.1172353225852936
1646 -0.07993818156301788 -0.3341568315008188 -0.9089532749716305
1647 0.33397942481393705 0.8027146918908307 -0.5407272841432018
1648 0.3469823169975259 0.3173391118891561 1.292657201416556
1649 -0.228369152827107 1.0925044833151134 1.8097898230383405
1650 -0.3278838840848522 0.6939125424782444 1.913109910383942
1651 0.4876078824088371 0.6178390765959835 0.4544407035421042
1652 0.7073344863453674 -0.5770125276706342 0.42180451110573014
1653 1.9130047724637111 -0.7488089659897453 -0.7824840048419106
1654 0.6054743113636304 -1.4477184333049016 0.43609175372128994
1655 -0.4500690248800145 0.2761262057817117 -0.8968527317555236
1656 -0.04556005533786427 0.1590576779318366 0.5942323856934207
1657 1.3306018700863176 1.0939802662867748 0.26856834717781286
1658 1.9317133307802843 0.3401942680520743 0.38020764925592054
1659 0.5802203990438217 -0.17916121253998665 -0.4045558560379136
1660 -0.04954549482603405 0.9987638248466916 -0.06154320870113202
1661 0.7225105643892583 0.672044972018169 -0.045953385159447815
1664 0.12824372553287844 0.3929266960388937 -0.7350644771774609
1662 -1.219883516426929 -1.8676506489973494 0.26040809887655714
1663 -0.9874461941905592 -0.3136261764995866 0.8235567491038868
1665 -0.052051872324409665 0.04069381515178971 1.188665383068487
1668 -0.27653435776120516 0.3293616242767221 -2.310721064559585
1666 -0.2675721577044845 -0.792666626215348 -2.5385386867650137
1667 -0.24122275998103232 0.2139723544475364 0.14974902008096322
1669 -1.1050115005692582 0.9048857484775242 0.1320263203889519
1672 -0.46523404473569563 0.11792549043953611 -1.0897127724108533
1670 1.004885512519615 -1.228000101981155 -0.4098438296882044
1671 0.37048818732891053 1.5053901337336884 1.0641327088653008
1673 0.44677321791203967 0.5847474111141073 -0.5622433010338861
1676 1.5255294102473373 1.3794686556488516 -0.5658327239221985
1674 0.7578187865558388 0.1628788427990358 1.9710798204253652
1675 -0.9446523039021197 0.2816854659269706 2.2785913969044684
1677 1.467637267611937 -1.8546454066715632 0.7733178638989913
1680 0.2924691003365821 0.8383679200911629 -1.248885277948656
1678 0.5307220520320679 -0.5838684125596804 1.2128162591278568
1679 -1.56690173902502 0.003722144238711894 0.25844588671068996
1681 0.5507445849729036 -1.5049645084215821 0.4099595551509249
1682 -0.4169228167466609 -0.0440230888115448 0.37868859871693594
1683 1.7516797631858574 -0.19773401558125647 -0.6428377525355581
1684 -0.8977001181012301 1.5480412732826097 0.15248252857324718
1685 -1.0985209388629167 0.25594613680775913 -1.5476723353409967
1686 1.1108539238577646 -0.717511598166923 -0.7554526494494181
1687 0.33432247233528306 1.7110685456099461 -0.19065836011949527
1688 -0.13250457627263248 -1.114805496566793 -0.03894218256261174
1689 -0.9330780742014547 2.0553340204459163 0.6260019335798862
1690 1.182163656149564 1.9797777543794894 0.26922382645845233
1691 -0.0625436425319157 0.15162764937670775 0.6117711076180937
1692 0.5318338997507405 0.146955961765882 -1.1906090930114865
1693 -1.550793171297432 -1.4255778737203448 0.017934581590754662
1694 -0.5542288997410297 0.8640235102235581 -0.09726304254533565
1695 1.5503805451787827 -0.5328566052022303 -1.5260562942669216
1696 -0.8936645486563871 -0.6730734322923513 0.16087489772585817
1697 -0.38232046620171245 1.1551546208479644 0.8460124799426207
1698 0.47678569037062846 -0.5796574917338759 0.35065734917796326
1699 0.309613824599465 0.20785698924465462 0.31093447873021046
1700 -0.08985164982120311 1.2350661551604332 -0.5493108517999132
1701 -0.6679383713058185 0.5464263685623822 -0.5138816512738608
1704 -0.8548201801629475 0.08670422099762838 -1.2319863252891892
1702 -2.5168517810786586 -0.7196740379138715 0.0336544600045999
1703 1.5125280166522186 -0.44814920080830584 0.4453010552241435
1705 0.7789751065923144 0.8226388388184743 1.9784301254186227
1708 1.5046914782430567 0.4662047295779726 -0.519878837276171
1706 0.08144949238612825 -0.04062925209338877 0.3167855912361051
1707 0.13565184182256373 -1.05722052556497 -0.717119631212507
1709 -0.11856862787444337 0.8946945400337816 -0.6634288715535506
1712 0.8856637085564076 0.9145566306934811 -0.5330493753084081
1710 0.35242576454142494 0.2664758849397101 0.7545502223320955
1711 1.5775785670700717 0.15488896598394328 -1.1102775299797507
1713 -1.9034524677681128 1.0967372254501127 0.1733846119139678
1716 1.6755701335435662 0.7670869165501127 -1.6987142279073066
1714 0.5549597477356055 -0.587181259996499 1.023765846340598
1715 0.16666103640871485 0.6614575589968492 0.7723789262730774
1717 0.5942909467681343 -0.9502612038242337 0.47884660296475384
1720 1.7639413848275616 0.5331722457199253 -1.2283852199801202
1718 -0.11980037235503857 0.5006911159769333 0.003492651428059379
1719 1.2778569529348947 0.29094517796401903 0.24940468116446593
1721 0.629778753155607 -0.3388639881505588 0.3826010410045253
1722 0.7616697547811903 -0.8938181557820857 1.1622452667389858
1723 0.7521219217083721 0.0313380339596787 -0.9278457058872203
1724 -1.556640227161225 -0.10692455669912877 -0.09893016331956221
1725 1.2933834381263314 0.06464899142277608 -0.43750003553574635
1726 -1.4031932258240831 -0.17634492202213523 -0.12063290979296558
1727 -0.40132987852352103 0.9537786740568462 1.7699221359426067
1728 0.3446640182639133 0.06318055817062077 0.13544101121964958
1729 1.3617186310923683 -0.24964320348720498 0.36281787077757793
1730 1.905018900003489 0.9214370115897688 0.43736877289246173
1731 0.20221556696809026 -0.4166396528890461 -0.3115517275238948
1732 -0.6302240934625095 1.8988611639456505 0.24509491346682244
1733 2.876012823929137 0.23778775825736095 0.7611565254596133
1734 -0.2959182901003058 -0.7583547941567468 -0.48722086942745785
1735 -1.348508031763278 -0.5705570055092765 0.42108599753999476
1736 0.3355671013798734 0.7094788187516856 0.7148769409245511
1737 0.19566510180127233 -0.08997385182434056 0.6835776106055653
1738 -0.17499923442187237 -0.6178870870854858 0.76349361601253
1739 0.31355345515632266 -0.8772959825777911 1.0612268691858675
1740 -0.8573153107398981 -0.633769155319315 -1.5394299193633711
1741 0.44177400375036113 -0.24530309057803984 -1.5278020302043533
1744 0.08606413133221517 -0.2303393818844035 -0.21475517413041603
1742 -1.065624789499885 0.48441703660212043 -0.18451631626519405
1743 -0.25072616836448686 -0.08099147283415979 -0.016532471700368603
1745 0.43973751388038207 0.2779324170353888 0.8751694546280812
1748 0.9141389986211257 -0.7014746942301762 1.0563519715687586
1746 -0.5776834182774077 -0.44781052985419767 0.9901701361503503
1747 0.05765946040770439 -0.40776659692399037 -0.3533120310078136
1749 -1.57276794489227 -0.22291500298888417 -1.989008912443924
1752 -0.07377590341479341 -0.9609818801509787 -1.0570966967801216
1750 -1.2338915385116347 0.26559539538753024 1.7938401882246333
1751 0.717958587596734 0.12745821912596858 -0.14499433090986097
1753 0.005521275509413934 -0.1281551994296209 -0.8047517264759235
1756 0.3079232495973018 0.015156538764339159 -0.035224001468239306
1754 -0.44537461983086024 0.8139978083836374 -1.0329571406584046
1755 0.08659796783641478 -2.012174954309968 -0.7588984665214894
1757 1.4668025395700663 -1.4151627983646053 -0.892060106892925
1760 -0.6064396773244133 -1.7738091920994628 0.6710966887557713
1758 -0.16636105171700796 1.3936746202054346 0.11569385577369867
1759 0.311254637872157 -1.9223996528847953 1.1463458362302072
1761 1.6399032255497275 0.6490724296723599 0.24195925570266572
1762 0.28389853360257505 0.27503179001112343 0.8170919683837051
1763 -1.058709147218901 0.2586583221788448 -1.4219417336345446
1764 -0.06990518554329184 0.8830495675803903 -0.4959890416120244
1765 -0.20623525719544927 -0.5835027987651055 0.18809895157494622
1766 -0.8174539425112083 1.0426433953265137 0.731783397519927
1767 -1.2026362831840587 -0.9048029591692746 0.7325576776723381
1768 -0.47372993615839715 1.0665284054223922 0.2913980589402961
1769 0.9504163972422606 -0.4023747567605588 -0.41476224229706726
1770 -0.5263989243111886 -0.6054721957083569 0.5482167950948116
1771 0.27521162750774014 -2.0006405245980328 -1.4969078692685809
1772 0.6917678387677317 -0.6076055429334363 0.3382939760391486
1773 -0.4877250677096384 -0.11907610799167789 0.2739807159687221
1774 -0.6556074233411929 -1.3029829942866265 0.22168685003950844
1775 -0.0717845038891261 0.6689165213741782 -0.33204887562971347
1776 1.1315577851425485 0.7586190407068047 0.7745000173734685
1777 0.44364434565971134 0.07437036202601296 0.6476541830473175
1778 -0.3995787517465152 0.08520168939054741 0.001037952465894526
1779 -0.12445539131940256 0.44799445866257004 0.2874111321095765
1780 -1.3245307261918262 1.603948686979576 -0.47855855352637167
1781 -0.6111478383696197 0.38765841949733165 -1.1942425713300835
1784 -1.4262292812208017 0.29523692136750784 -0.9154920773628868
1782 0.7695925769981244 -0.8505275879340911 1.2928135386841557
1783 0.7650968888906632 1.2105279327455247 0.5423867957983979
1785 -1.6329625564340864 -0.5778313796387764 1.4789020611288664
1788 1.2929900889180976 -0.42202082029154503 0.1896974716367106
1786 -1.0721383215774745 0.15682321079110928 1.5575910775643096
1787 0.5490911728893959 0.9954749785612862 -0.5450928253830686
1789 0.7110399389778348 -0.2651880351823238 -0.5214765565372215
1792 -0.8626220505115909 0.003996163320324514 0.17983544224370213
1790 -1.0386128767922034 1.2449811472770171 -0.2929394808260989
1791 -0.3289074229979617 -0.2825718453963744 -0.7792181481766058
1793 0.8699513666511989 -1.0064183959414539 -1.1106058402180032
1796 -0.429561652262049 0.5973366006629639 -0.34647612027355573
1794 -0.6916100943267318 0.4654540899683517 1.0408957536638954
1795 0.4807119449336325 0.19997552049137848 0.10185907967449596
1797 -0.30214235491475094 -0.242382139845638 -0.18593450946260442
1800 0.44675172989720513 -1.228482733605472 0.42911471947557106
1798 0.39896058868259593 -0.6710409039517049 -0.7880850939344601
1799 -1.128436070817256 -1.110029293215879 1.1072848984796515
1801 -0.3791223215777686 0.7135227648390324 1.4359551301692721
1803 2.546601337262227 -0.7380190884048945 -0.12857086564461562
1805 -0.30908244351956415 1.2257223591777529 0.04879600574990546
1807 -1.4040161494551782 -1.0266502640278605 0.8134990682510935
1809 -0.49193080948695095 -0.9317001304120943 0.06221456065510062
1811 0.125026943736772 1.2036021552807388 0.36477382753418885
1813 -0.07456494699867755 -1.0935494917473487 1.1336578051271187
1815 0.5899107992054285 -2.0688156796749553 -0.5955799338713007
1817 -1.150912515903928 -0.4805546765135028 -0.4489656648439283
1819 1.0000571431509229 0.0740940031696518 0.6964134296950433
1821 -0.7790409410679587 0.31495106340324175 -0.35947296075120666
1823 -0.7230211466569292 -0.025781063339268162 0.8442724173141732
1825 -0.2883689652180631 0.3605468492397623 -0.5082877027701956
1827 0.46152831819044887 1.5206033922151656 -0.1005477060819482
1829 -1.3862476855652113 0.07370188200331784 -0.7040252294749075
1831 -0.6811353088172912 -1.605012029881666 2.0699275005197406
1833 0.3331825909730413 0.04037138045476646 -0.43147398737135423
1835 -0.12083060164569663 -1.2145441895249816 0.9053213924540838
1837 -0.8477367866794167 -1.5268570437937274 0.3591358231604506
1839 0.3054524163032095 -0.8923975282047333 -0.7970363071904148
1802 0.2194896347987935 0.2642541598210296 0.47854347447691775
1804 1.425735790635619 -0.04140504386696101 -0.3114695010692057
1841 0.712477430798795 0.10563305378187979 -0.5079231103479362
1843 0.0008892050934155467 -0.5346927056998052 0.02373583165109889
1806 -1.1364134107822943 1.0091921913668622 -0.5512647942573159
1808 -0.38583341946396676 0.5290674005393421 -1.1949742787985025
1845 1.5121554673722575 1.7155466441751062 0.4539095750224366
1847 0.39840034002733343 1.6499468404145023 1.3141824430958706
1810 0.17825156127480912 0.4223872671503545 -0.16059476522153865
1812 0.5911001672110604 0.14413080183472116 3.4955462585797514
1849 1.0269205770646543 -0.4173628482219309 -0.41571705705085193
1851 0.12432410272021133 1.0421888830231991 0.41860982149458104
1814 0.30971243127866444 0.1606710629794567 0.8320443016803023
1816 0.14409115715199627 0.30607188661130286 -0.9969570841705908
1853 -0.6661763722155349 -1.409815482668109 0.6440810306689917
1855 -0.5651167011603889 0.4959483452968246 -0.09357697395266514
1818 -0.8882420562852175 2.0893303966924153 -1.1423894634529583
1820 -0.6307301026369384 0.8936521145509383 -0.5594918750601462
1857 -0.9043518910688346 -0.010554350157442854 -0.17944357607670608
1859 1.421550544837635 -0.6462676833595266 0.4560140142555151
1824 0.40744881397089516 1.0413255759459694 -0.07141087500026755
1861 -0.4280341112309438 0.791638386644135 -1.195018068235675
1822 1.037244485893155 0.13117866512897294 0.2829118605460235
1828 -0.9234079592114097 0.1305914227220746 0.9924296275371487
1863 0.23466973017616788 -0.556261096992621 -0.11043389045752142
1865 0.1864270034551172 -1.1346934408155638 -0.3611023404798761
1826 1.4358198773863766 1.113605374471811 0.5774125627939387
1832 1.6533042745192397 0.19466428076514322 -0.14550202447928798
1867 -1.1660553854230304 -0.39781921841585577 1.1909684382082653
1869 0.7998065955328323 -1.3743497776355689 -0.7136778165940012
1830 -0.14135651998053725 -0.1551915772821826 -0.04379957083022336
1836 1.7096973418604355 0.32616418105190803 -0.004285976749410971
1871 1.1021556676913742 -0.26607043911101225 -0.45359273198624017
1873 -0.7312632616630397 0.2133181385063569 0.4852831500714652
1834 -1.8447144680704055 -0.47692251346422676 -0.7419244001082101
1840 -0.24231812181548593 -1.5838554395698843 -0.7224186081976842
1875 0.11126711742361707 0.05077202500851629 0.11103452046133454
1877 0.1311411612918526 0.03942130198136391 0.049883167232774354
1838 -0.011890246968847856 0.03455311697576009 0.5789610818935987
1879 -1.996740580735433 1.2608327018292258 -0.01517795134146753
1842 0.937697522769193 0.12225065420068394 -0.8866015669815198
1844 -2.1014648495919492 -1.0117733196406071 -0.4979389686036861
1881 1.1080913484748502 -0.10417611549178782 -0.017279882645686695
1883 -0.3867018495886875 -0.21583069922492226 -0.13706004368220112
1846 -0.05559630337578096 0.13356929126034348 1.1887185514587704
1848 -0.14394463402266566 -0.689223800259643 -0.865736931875398
1885 -0.47570798182340335 0.7721278581851972 -0.06940732740428904
1887 -0.18698733357182049 1.3808802911079612 -0.7399817083186513
1850 1.1718496159479563 -1.3933896046357088 0.6325798017683022
1852 -0.02910384401940574 0.6891119654417109 -0.6185019222190344
1889 -1.159847690428049 -0.10561748275601573 0.11497342291873254
1891 -1.1200768696501335 0.6956198760692034 1.2880296842870966
1854 -1.7413181109439504 -0.570529618117137 -0.3323854175000117
1856 -0.313830987914531 -0.11998841762725983 1.0953863539054944
1893 0.0022150662900578683 -0.11773161619524292 1.601754692878376
1895 0.2631067744889207 0.7889398725144064 -0.8799290153427479
1858 0.2211421681711274 -2.137345124616178 -0.2846092367130421
1860 -0.025637065434938194 0.4470187299762622 1.3258012062757083
1897 -0.835295738171472 -0.6657838097952782 -1.0516425558134719
1899 2.2103456872202463 0.21718803468357833 1.0061887775991463
1864 -0.2904624153952402 -1.4159956737085282 0.9357790515243336
1901 -0.2461148237066277 0.7449086117300499 -1.3651023547229792
1862 2.086958163506529 -1.7952733329786474 -0.35439741355024357
1868 0.1806098084737502 1.131090375417169 -0.3674528049660634
1903 1.321063077860393 -0.6242979233457177 1.2872813286690727
1905 2.451280271665838 -1.5485712103264961 -1.5138361829819864
1866 0.35924231546747143 -0.37968511872606403 0.16997834817050317
1872 -0.4200464023274327 -0.6624050613835342 0.6251945442250043
1907 0.10291838447830953 0.18015099971545684 0.23536749161118864
1909 -0.1496549125249554 1.8979086045759503 0.14368705639139667
1870 0.17237515994188238 0.9832380813145553 1.253926032911776
1876 -0.245543838184099 0.12909924377389104 0.5389959012332017
1911 -0.9945455701465872 -0.2649749444731089 1.621169518401496
1913 0.47002050511247884 -0.30482656696384425 -1.2452755910815163
1874 0.13860127137746336 0.39713380836506623 -1.373174323207978
1880 0.6145381281558224 1.7209382213627693 -0.9009357996217249
1915 -0.42395205206643494 -1.6417355632950468 0.5120426674758641
1917 0.09049614829687445 1.0817247020565124 0.28113427407384095
1878 -0.6645858165040024 -0.29054363582993664 -1.2426250419704252
1919 0.45355739686990737 -0.22631038193510455 0.3483194596956904
1882 0.5567212878391562 -0.7722056861054859 -1.480848923259012
1884 1.279140730455846 0.14001435419489572 -0.7209442754716501
1921 0.5853949173101954 1.992130631572499 0.5266176567534507
1923 -1.0280298507568195 -0.8579518742522483 0.6949773874273117
1886 0.3940307201318811 -0.665750812083578 0.021738306500636576
1888 0.6694469932700201 0.16393745987691954 -0.3760055218840944
1925 0.10787514097346372 -0.509053168649437 0.4709768068881252
1927 0.42528587690173125 0.5378101541982058 -0.9479301599890676
1890 -2.242420124806016 0.11843553056332726 0.9763523849800052
1892 -0.5664660888973171 -0.57076180841433 0.5100727775398235
1929 -0.2461993599303047 -0.9851214741981065 0.34576803786513177
1931 0.02490174803839763 -0.285237815872877 0.7871262311005929
1894 -0.9604156304506452 -0.2620717665835523 0.4821128177559349
1896 -0.6792929860354291 -0.6093772699609133 -0.14352778036910913
1933 -0.005116442332637076 0.07465674691554408 0.5795730245721887
1935 0.7270383721001775 -1.2852508191466998 -0.20555282331054708
1898 0.21071500783223113 1.5244154458685757 0.8385600694796151
1900 1.0499323006894739 0.6906181805386572 -1.0130751978072914
1937 -0.4817570930163311 -0.09089402702739499 0.7511115786041481
1939 0.4854126454878903 0.7020954319034025 -0.4828381488954274
1904 0.876854564994202 -0.6815934005346699 0.3073161173387798
1941 -0.5971069402548814 0.32505623883417134 -0.18253481658247772
1902 -0.006242146377851601 0.46953743634050077 0.34480594191468983
1908 -0.14054901111100013 -1.2726573969604686 0.527229170029705
1943 -1.292248346158362 0.22296993358062983 -0.3081751018727337
1945 1.756828772973846 0.9426833843599337 0.7594397316393333
1906 0.8507264121592549 -0.22172859915791374 0.3940364063987132
1912 2.246399135168652 -0.20731193459146452 1.650998073205844
1947 0.5674185483422609 -1.6270065362898105 1.737811021035794
1949 0.11474606014933988 -0.21396596569430265 -1.0522703311891561
1910 0.6534078041252263 0.8249472622707449 -0.954862923855248
1916 0.15797339384549725 -0.14739007050747932 0.729119954327904
1951 0.42664848515354803 0.7570285859510757 0.3568126708250829
1953 -0.6219958598502664 0.2153352693469073 1.360661885847862
1914 -0.38009356248819653 1.0951999050768673 0.20660114346608488
1920 -1.02860325640498 0.20239469742719385 -1.5339938093415533
1955 0.04001218783817266 -0.6480798472439008 0.8990204230380744
1957 0.6228405697200582 0.27320744604331704 -0.026437264919848054
1918 0.2982449410254117 -0.09798248446280446 0.09276449198266469
1959 -0.20459484452812038 -0.9274314723114842 -0.2625152387078143
1922 -0.388289270951491 0.49663594027452607 0.576972861508067
1924 -0.3719680875148124 -0.3855985603201917 -0.3868008989041555
1961 0.18439303442034183 -0.7962084498765193 0.7763489501635185
1963 -0.18403935945870936 0.7115963566934933 0.17241469904163528
1926 0.9251586322555511 0.5068110975673779 1.4502143609154
1928 0.8767769267584734 0.4846153874004632 0.03975207453902603
1965 -0.9542227155485699 -0.4644349175903242 0.20965141844700805
1967 -1.238728753685597 0.8465933631073296 -0.8570387484540589
1930 -0.844066741382262 0.47039584620826724 -0.8208512354271053
1932 -1.1608713807170925 -0.9472774406931375 -0.5264767281113898
1969 -0.4875656570448746 0.7724243406367404 -0.14651508315369002
1971 0.942304794300607 0.612372373351277 -2.7146073390157324
1934 0.12376330301332647 -0.5490290648657878 0.37708962582312266
1936 0.03958831218708944 -0.7165675676330063 0.21616919727589223
1973 -1.5136306871617649 -1.2057128170123355 1.1099090313726039
1975 0.7452696293264226 1.100351196204807 1.4808919354763137
1938 0.14508666949356744 -1.5107068775024302 0.5036533547064053
1940 -0.006880264577665829 -0.7655226094053184 -0.38062888312046556
1977 -0.694215634398963 0.4458595908109292 -0.33574973562417404
1979 0.6333144808643738 -0.325866222041224 -0.3971164980173779
1944 0.8307114026620541 -0.4764956523527951 0.21787959808352675
1981 -0.10083530696714303 -0.4359131854568721 -0.05113512449303144
1942 -0.9247530053330284 0.3607798986476234 -0.40012892530617017
1948 -1.2132117486343712 0.4129971988866604 1.14870879838661
1983 1.67477666195377 1.1768309985772814 -1.1819601557708876
1985 0.7413348156997196 -1.4640607886269954 -0.8588347586355871
1946 0.7017933289365182 -0.2546504575152915 -0.5018865589722499
1952 -0.2760267978672326 -1.0014224095261377 -0.7658790030913274
1987 0.10039895023570164 -0.24617377591562695 -0.36056677811188514
1989 0.0998233384325275 -0.2573524801641428 -1.0990367076878933
1950 -0.09139003937129095 1.0636308249678696 0.0929651585858241
1956 -0.21167146956029972 0.17455800335315214 -1.2475303205825075
1991 0.39640077427220693 -0.38671616090324584 -0.2692851705045162
1993 -1.3680925244107303 -0.0521743376332742 -0.2919169859665117
1954 -1.490728646376341 -1.4795424781070488 1.036482050927815
1960 1.1782609814893306 -0.966638904599677 0.44158003845187405
1995 1.6766800130011603 -1.5682364863203522 0.18271122637355428
1997 -0.17704954543385015 0.2737695984738321 -0.22087394797462148
1958 2.4314178981872985 1.5233025330267844 -0.3596478401390211
1999 1.0928702430390966 -0.5494729520920141 -0.4909146916612219
1962 -0.1278150581563871 0.040267250922198364 -0.10058203483926967
1964 -1.116711546033502 -0.8928056159569 -0.36652993971329995
1966 0.22300410539116716 -0.0631713121415545 0.7674455310153272
1968 1.4682753881692125 -0.20676902901734961 -0.6333866379932461
1970 -0.06383783401086884 -0.5949220384585931 -0.7040284239173865
1972 -0.04341187461687586 -0.5199944188428932 -1.1029615190127353
1974 -0.36011122049140104 1.4308397060923261 0.4747972433845833
1976 -0.2892246428191863 -1.5361520432232718 1.161642924983743
1978 -0.8923299281994258 -0.20878583558922212 -0.46189328122503176
1980 0.14998171036707827 0.23447050125273464 0.09750262589623265
1984 1.1968387861856198 -1.6563568927681749 -1.771162298107511
1982 1.408230667165334 0.2727124524482021 1.1972952176376515
1988 1.1103210941974426 -0.0641887596905733 -0.22858739992335098
1986 0.6406412962572556 -0.7161362294383595 -0.5338822068930034
1992 1.2132076158905323 0.5688033287017277 0.3613380159557407
1990 -0.8603664536698309 -0.16276359100570464 -1.2900604244526583
1996 -0.5323019227820138 -0.07744102511498568 1.1266907799576977
1994 0.8710497206192553 1.4930716972218732 0.4944443951180855
2000 -0.012552594451412689 -0.06938298321101605 0.15062060077357778
1998 -1.0155128397162894 0.41851809778265053 -0.7923713595328268
2001 0.4446924017954477 0.6300896129719881 0.6924136245233325
2002 0.09518243934487053 0.5462846428801037 0.14069325697801013
2005 0.5294447990601568 1.1158620254162588 2.1309184968502257
2006 -0.7744092620096082 -0.3995369386171932 0.6851767455725943
2009 0.20041000229515274 1.2156767756714946 0.04875124274884782
2010 -1.7573031728319004 1.012429051760863 -0.3983482919581056
2013 1.512389400544857 0.5474773079927134 -1.1204127843770122
2014 1.3733417409714346 0.07155442906933548 -0.11443719301855672
2017 -0.9111041463901914 -0.2637577950447654 -0.8283087720160925
2018 -1.2452749573775308 -0.09349153596606491 0.7556907031946035
2021 -0.5094666164405898 -0.3250472545603101 -0.5720803645270679
2022 1.0874721219640466 -0.3512822557958584 1.3245480170927724
2025 -0.5507875666107207 1.449555614011161 0.1745988657012208
2026 0.206715413527685 -0.43643859644994676 0.11418884459998278
2029 1.9478595489140385 0.45089696337914065 -0.46974681588646894
2030 1.8867590030907548 1.7020116831086023 -1.2464045674166155
2033 -0.7095619660669347 -0.6072347947857624 -0.6578162473017216
2034 -0.49680298836297115 1.0342860830531995 0.3333102953826583
2037 -0.09271609555443412 -0.35458257408909283 0.15157266766748337
2038 -1.6496892615250316 0.14634149596222706 1.4065996291642684
2041 -1.0580174485168194 -0.2221887518320475 -0.14634117420225295
2042 0.32915724298785465 0.8585552225124703 -0.7086447408188263
2045 0.06729473006762261 0.3080010302431603 0.4703919550708349
2046 0.21215761508195494 -0.20375281350307894 -0.5353750110992022
2049 -0.6367787828683298 -1.4405318192402954 1.0548110795085377
2050 -1.9747658659053497 -0.18843476809995335 -0.012719675427048573
2053 0.1185024550223911 0.02684032646936077 -1.0668236370138697
2054 -1.7996657854656033 0.22878551354986254 1.5388586923865128
2057 -0.6686359457786321 -0.12076548496286993 -0.6822445148303892
2058 -0.432297109719363 -1.726242119137959 0.37401881878556614
2061 -1.2398447485973023 -0.2754538217877069 0.6581036291470029
2062 1.236509298931317 -0.9036239011838988 -0.3379530886229506
2065 1.1051809076353276 0.4405570602790761 -0.9721324482233065
2066 -0.3677376621246546 0.8856683508726216 -0.7289681171194614
2069 1.5397543539108334 0.5357275589847419 -0.574856659730464
2070 -1.5888183198459398 0.18957180100783688 -0.6366314263426268
2073 -0.37809791710254537 0.7523696434669701 -0.2861053891922615
2074 0.27937953144902417 1.0878080109346728 0.7243268799382017
2077 -0.30770432456283664 0.2167745570961449 0.8982278218821865
2078 0.31778248217962773 0.8509866248486083 0.029459136441618357
2081 -1.1278208207557443 -1.1010844776691233 -0.4001776855536546
2082 -2.116915699140196 -1.1397710335554228 -0.6202450187723096
2085 1.088437641789026 -0.7301150178242295 -1.15076482919622
2086 -0.19462285804884122 -0.380328382814017 0.41757280764235266
2089 -0.8310027403915416 0.44341052536388315 -1.4758634454074278
2090 -0.6080722194665599 0.1703609038559788 0.8779311645541087
2093 0.8764479021580467 0.059273492788136366 0.1422332743471561
2094 0.29878175159523784 0.6151672062537364 0.18340786549333174
2097 1.2290975607558483 -1.2710340641295292 1.1835478113289173
2098 -0.1970164712032679 0.9929297360905128 0.019971474851429305
2101 0.8311075148214518 -0.4112088726630479 -0.27004093420047376
2102 -0.1954364251406131 -0.1690813404567019 -1.0142418098307164
2105 0.9235338085573995 0.28633064661811963 0.4868863732093266
2106 1.1142629573952252 0.8574676785105474 0.5670240591788516
2109 0.17962870887825189 0.16826280602784313 0.42109336664646274
2110 0.02871253265298193 0.5733093307726408 -0.3766311530772138
2113 0.2168333916502835 0.31621416330680896 -0.10362602672564723
2114 -0.759906669625904 -0.03401387150491448 1.758796641332236
2117 -0.46629189133692694 0.2855373957805268 0.17544738269761687
2118 0.019469087204864365 -0.22120208852581175 1.361125785210084
2121 0.05935116122180756 -1.0904428757816742 0.4760065203084636
2122 1.412127956848434 -0.27411111042505765 0.06987165622826352
2125 -1.2999035420698632 0.4313891861485673 -0.052975242522641124
2126 -0.5273930468292927 -1.0373346919234752 0.664962907053817
2129 0.16049292147694438 0.44175960490326854 -0.8924968977426969
2130 -0.19994603174425252 1.3598790719539118 -0.36112038847566175
2133 -0.2026400055682507 -0.5125218978673762 -0.3262889478852727
2134 0.4407527355619977 -0.7457660481009575 0.27604116949195395
2137 0.5713094664863554 0.5930061423838682 -0.5642183254914926
2138 -0.38732481835220023 0.2298856756407665 -0.4644665975458879
2141 0.44277473724641214 -0.8070631827545957 0.8242642339918831
2142 0.22584569256355658 1.3041909927671587 -0.7211929346818584
2145 0.42115022611342756 0.525559884321075 0.22497684289743983
2146 -1.3618507805693085 -0.2619936010888279 -0.17152334730547752
2149 -0.4482561930737856 0.4691971070324452 1.24745394891485
2150 -0.7139422401969228 0.5586810882518862 1.3663414177967785
2153 0.2207779652358596 -0.3354877903435597 -0.24858807934583357
2154 0.28615425482946283 -0.830634658940399 0.3187279248908837
2157 1.078227328592034 0.8461484661264455 -0.8792775089375029
2158 -0.1270644677410706 -0.2598457309367718 -1.7429079431756818
2161 1.0697726464140167 0.9478572606904988 -0.7089788864224121
2162 -1.1716254894594254 -0.2282228125905129 0.46111434052175776
2165 -0.46606160911001215 -0.07763565780478865 0.38315922892444054
2166 -0.30299714978986203 -0.5248711168141945 -0.8719862947896974
2169 -1.9663648052291705 -0.9556803338386014 -0.5840259210708365
2170 -0.9798231491511411 -0.9142276129913134 -0.8887055225177399
2173 -0.6612675392056533 0.052942881006262474 -1.2337517224193957
2174 -0.9794087959702894 1.8911745779103224 0.6755238847778314
2177 -1.0573100976247272 -0.25159274518140545 1.2205023255019023
2178 -1.0597583178894527 0.5240859167214309 -0.8687241932615771
2181 -0.6583819453411074 0.09527021988859326 -0.026344810059964155
2182 0.28319873380894456 0.7398643012726899 -0.1921217539091575
2185 -0.7493915934482792 -0.4276528899577708 1.9987156262439858
2186 -1.0048033359684134 -0.9072097992024483 -2.4862723749030633
2189 -0.057240065635894545 -0.3866075737419148 0.17455453543182575
2190 -0.2892557681832838 -0.842401460958135 -0.661882744347201
2193 -0.2306455279550631 -0.37900438755591026 2.2565896891077535
2194 0.11693347353974647 -0.5161783861474352 -0.4456821242747465
2197 -1.3866196881494985 0.0874615314162523 -1.2166182637860627
2198 -0.25473166290069654 -1.4578631798639432 0.47854236662769956
2201 0.3288717987856019 0.7961472010308118 0.6407788931052069
2205 1.5609566551849579 -0.33222449290582096 0.4668706384259609
2209 0.5034462415808398 0.02916692245204 -0.8565654041494886
2213 -2.7420682490635855 -0.6215238423672632 -1.1064894202137612
2217 0.07925608186454774 -0.15361312396109553 0.8166799489906326
2221 -0.47439615439137833 0.5146482161116444 1.229670270918992
2225 -1.3420243651282138 -0.5561248117086545 -1.2167423854156494
2229 -0.784107178762556 0.759924700124362 -0.2034189740468714
2233 -0.31560210423603513 1.3123546500594079 -0.18896966292848938
2237 0.9579180649263302 -0.39609745427328186 0.5655698371244476
2202 -0.34161848418805607 0.4515009292187492 0.6294445265099086
2241 -0.23227543322789976 1.1086307682508671 -0.5664300618266848
2206 -0.07782801905505238 0.23407145893867198 -0.17231908063655837
2245 0.2579585790817831 0.502308964656692 -1.0617827946889287
2210 0.4631844279978614 -0.5075497423708357 -0.3061136621171286
2249 -1.348642424595943 0.24978074342011847 -0.08956115537381298
2214 -0.6857452237505985 -0.5975598787858938 0.8772858611528483
2253 -1.1465566913920926 -1.32955363375778 -0.5639189834231642
2218 -0.8971675841996293 0.11792754209000954 0.6939722806592135
2257 -0.34907901020715604 0.21355027455945108 1.9035985006983196
2261 1.2993996507019359 1.5327742686118135 -1.1409624782953873
2222 -1.1899097284448081 -2.2098248552677147 1.589555068987011
2265 0.37295626672638515 -0.9420078148884464 1.1111183380478942
2226 0.6368980570987433 -0.6035600245460294 0.010276448752077283
2269 -0.5154856277291293 -0.3451585517044723 0.9901032192799647
2230 -0.3057299554320882 0.31071306883532646 -0.19046655890943098
2273 -0.1573968552926575 -1.1655656632001667 0.9530142680745378
2234 -0.2735697914946321 -0.08518169977648199 0.04798775487117909
2277 -1.0746911190611712 2.053079504278451 -0.9487194413499814
2238 0.4174234894214973 0.47744930794687834 -0.8826054220902553
2242 1.1419910219592675 -0.7996816255728626 -0.25326046171433325
2281 1.188615109587769 0.4678685233770711 -0.0008213222325634158
2246 0.2472297471780507 -0.9575714041501364 1.020338778262714
2285 1.9950959443911889 -1.3545749205555406 0.0019643302119080747
2250 0.45624912382743393 -0.17562162816231314 0.36817257793267466
2289 -0.47253807064457953 -0.45936244229430195 1.4988347359590748
2254 -0.3644993096964613 -0.5439091844062697 0.06472867931096016
2293 -0.37054191633565875 -0.6556121162455334 0.7062679102894593
2258 0.9326593040478737 1.5647454434304906 0.014827912519932165
2297 -0.10455745210389629 0.655877607539789 0.959929813511988
2301 -0.5162614412304131 -1.4818427786521904 0.3238202738120796
2262 0.9255322186185343 -0.18499575455526432 -0.24610144883909785
2305 1.1340352047886701 0.5252674757116247 -0.3503807352927241
2266 0.3891732717968357 1.198227653376366 -0.11510389920916564
2309 -0.05117372487938739 0.5894875162745683 0.3278629626545434
2270 0.7637936444194701 -1.560950328051352 0.016472633199629435
2313 0.7517902332998841 1.520388637374805 -0.841059402938158
2274 0.3898787799705224 1.585747561880649 -0.6925960636151869
2317 -0.29415759550103704 -0.08735413686323783 0.02186853959689364
2278 0.9382898979188201 0.4242084641230564 0.014584956560814787
2282 -1.2067328946104257 -0.34996361814702537 -0.21097505459249166
2321 0.22496461446153077 -0.9547911795987495 0.6391415836935458
2286 0.8699478711642795 -1.921569350545432 1.2071346851446423
2325 -0.3489156508511463 -0.40749342944525363 0.7435329715014752
2290 -0.051559274346667607 -0.6183001540273018 -0.6006962663755151
2329 0.8504572150355075 0.5103412977027864 0.06005047275025926
2294 -0.4849624789123215 -1.0312593494226376 -0.14953085173619696
2333 -1.4843943803815014 0.6081680315908596 -0.19681003427281096
2298 0.8327502815064135 -0.9531806995401817 -0.054534351265831525
2337 -0.4948902739458398 0.9227283921391602 0.22644035790671013
2341 1.1141956223292342 -1.1217409678342696 1.696613856508607
2302 0.2207555820935113 0.31655134427281206 1.135520523841599
2345 1.420129326768958 -0.7501547557581627 -0.8356069479862147
2306 -0.2981402076687315 -1.0637484502396095 -1.010678377852428
2349 -0.5625579958862343 -0.6530160387068901 -0.4766355631999893
2310 -0.16167707853131014 -0.14534694933463188 -0.22068891571377008
2353 -1.6062555031008676 0.06391166597950869 0.12749418018406122
2314 -1.140824666948029 0.523708470367274 -1.4143943099318523
2357 -1.139600504533976 0.3379788536851524 -0.31785037783145276
2318 0.44556909816364615 -0.32857318311634287 -0.034858409081874445
2322 -0.09567173587254098 -0.06760246202630416 -0.5507101753296902
2361 0.09340077737684545 0.27946497201609943 0.4270708824466225
2326 0.3982124408131954 0.19746434721034117 -0.6637889247741722
2365 0.8727238113678675 0.38306807465126047 -1.0961102659508644
2330 -0.8612178406628123 0.9049413932759492 -0.2510470714566319
2369 0.9520018732245514 1.520085613265703 -0.7311088761104368
2334 -0.03977924127240806 -0.11038360472627191 0.2979920167376332
2373 -1.0021620171512473 -0.4938580433375661 -0.5810841666820356
2338 -0.39052896303851886 -1.3756068118065623 -0.09555566094849982
2377 0.5379607049710035 -0.00020807393286500359 1.4894920190673502
2381 -0.4959657992610438 -0.30533982622859723 1.0527822088919252
2342 -0.35649420978629437 0.6868073416821467 0.32000950908346565
2385 -0.45740437051664573 0.33130903410903567 0.729067527925009
2346 0.8164472711037714 0.17487922756409677 0.04644298198480336
2389 1.294201546244864 -0.24656915651136066 -1.5559564595467723
2350 -0.2700344660632968 -0.3526022763694257 0.8328122667121823
2393 -0.18323088563646459 -0.5840033160888692 0.8472283276855468
2354 -0.9946154088708261 -0.07641290047944789 -0.933726905922076
2397 1.8202288228041978 1.6755519380599162 -0.15980998213066708
2358 -0.42894271076566215 0.531911111043481 -0.39688927151466236
2362 0.5902037281771636 0.6765398567558708 0.20301126569096745
2366 0.4760662364832805 -0.7893900063476806 0.29212494294767993
2370 0.20126846406807858 -0.32705825378178516 0.3634501986230532
2374 -0.07912709960421116 -0.41061126025055983 0.3089236094385464
2378 0.3011034666626678 0.6258807712954213 1.201912445360226
2382 1.1346849826043457 0.15580709122908024 1.45015207749745
2386 0.8128023795357193 0.7098932236729092 -1.0293783559910124
2390 0.7105270896972662 1.3601811311812206 -0.7477952822684859
2394 -0.4464764962884754 1.2668573373925298 0.31024658136956496
2398 0.3456972761306352 -1.1842830537085283 0.3899511599143513
2003 1.0723779586214546 -0.8396245662129943 0.048404001582001054
2004 0.382943408576222 0.7132671399488808 1.0386294178529587
2401 0.22854911189964497 0.8821290103138885 -0.12266297153691305
2402 0.2189408427606559 0.5746465235940043 0.49251765729910724
2007 -0.30832868983149886 0.34823878095217037 -1.052739634260672
2008 -1.3806232447161897 -0.24587752905927468 -1.0218948804172652
2405 0.21703636746647503 -0.5415462875310625 0.21259323190210003
2406 -1.1085758352910244 -0.46164961760180095 -0.973326751133198
2011 0.11006737317488526 0.274662454991715 0.19418630877693321
2012 0.7896025935450468 -1.4017452629501075 1.0943905575803052
2409 0.592672576869936 0.3584869437511802 -0.8555914683244084
2410 -0.9022654729001887 -0.7246823584948161 -0.033257637535130044
2015 0.32147254457067503 0.09326361064822569 1.4338809706571827
2016 -0.7358416647957002 -0.12237780689495543 0.9562903449884939
2413 -0.3097942147886923 -0.9350775698101652 -0.7550656347790365
2414 -0.026092960696597618 -0.09830276372829984 -0.3246437563783929
2019 1.9437153929828015 0.3875916559930197 -0.7526428529153701
2020 -0.5201122362909565 -0.23384245745828464 -0.05963666543158069
2417 -0.21650917728103622 1.2508730206510235 -1.8058769228629667
2418 -0.02622241792346342 1.0777738089143032 0.2811163119573517
2024 -0.19674171422313733 0.3180552425521314 -1.3079909145091806
2421 -2.282989484036519 0.5217647498143638 0.8610722293048791
2023 -0.46042085539635774 -1.341993936690602 -0.33093638352004445
2028 1.8853386503915202 -0.06215434173752418 -0.35668161567604706
2422 -1.0962966308589102 1.0585073985287075 -1.6877527910456118
2425 0.655132768667179 -0.025477584853352445 1.5387337776307062
2027 0.20628657841663808 -0.20623706105206283 -0.22848476208714777
2032 -0.3770200899992744 -0.27545379504036094 -0.6855765721682956
2426 -0.6939829111810734 -0.4427189970655245 -1.3060652438251623
2429 0.670471492520527 0.4122038611221088 0.7390597191238528
2031 1.3948661814975358 0.9364641936961614 0.2621693498449832
2036 0.7323469859173181 0.11569394563049336 0.08902627445356197
2430 1.0467001412612482 0.11296144287343383 0.640362692871038
2433 -0.6305914716370554 0.2820258779599755 -0.5756067942929359
2035 -0.32692885249226994 0.7926820381646367 -0.6291486304005544
2040 -0.10684917706676095 0.6581123411206193 -0.04378437747217139
2434 0.46879374839388455 0.43384059182403123 0.32248916003718253
2437 -0.1101056663700916 -0.13869712016980607 -2.356251756950308
2039 -0.8767468088839465 0.26597741118199036 -0.7571662915932966
2438 0.33550358592099366 1.1195824866045683 -0.990870157733612
2043 0.7515607119284354 1.3596279902002941 0.22336926665503415
2044 0.4141660553543589 0.22837867832720196 -1.7370294755721765
2441 1.1511833265949618 -0.6464645130335219 0.4166527488063233
2442 -0.5910148841794981 1.275972678611327 0.8729784464565407
2047 0.2680424405650204 0.842171139500342 -0.8455556456106866
2048 -1.4019192707273085 1.1239463288071927 0.5359984280169804
2445 0.0867617753552979 0.6939031958245341 -1.6422856492419369
2446 1.5903047400159123 0.502481741584695 -0.527661412290484
2051 0.12101814127570933 -0.7666502895077453 1.377722823914044
2052 0.3205039904972362 0.2732741280608708 0.243170901424525
2449 -0.2508177864488666 0.18098650113436188 -1.2049465991017763
2450 -0.4346184150667367 0.20663167983921416 0.10285246110990356
2055 0.6581442897910832 0.7046089449724992 -0.6773112397911365
2056 -0.47734558154170376 -0.34265185013076327 -0.9705811132422337
2453 -0.4534901770384702 1.0245445365478434 0.33184744615596357
2454 0.692473131616108 0.7621187031166587 -0.0578459688254097
2059 0.9902348837754041 0.19451029699100275 -0.09258673793202074
2060 0.8611708137348942 0.865778818602365 1.1848258615936276
2457 0.8598306554167799 0.2665888072763178 -0.5679296838247757
2458 0.6421616514049069 0.6014816255975696 -0.9073659647897169
2064 1.7191913186412378 -0.9464700135561992 -1.1421709320750977
2461 -0.026866850194347005 -1.1297624476863988 0.41325270075759896
2063 -1.532110567055008 -0.028956469950522687 0.4361945195281231
2068 -0.03658748741847289 0.12075343667352706 0.29243707132413815
2462 -0.4698578073743725 0.20471446134902288 -0.3889936999707404
2465 -1.1394649728068456 2.0065436666270107 0.10314692266689457
2067 -0.36690975104328355 0.14799713441687806 1.2570536724693508
2072 2.119447193682977 -0.10251574258047425 0.6955036376234572
2466 0.8287323044290775 0.45419329157346267 -1.639092559439234
2469 0.15364318759954287 0.09215648840032413 1.1698254971139586
2071 -1.0525926003925148 0.9386290428833023 0.26585561921580736
2076 0.887791118447921 -0.6178289460552466 0.13101590264428914
2470 -0.5087108408355825 0.9188010179828758 -0.7167712723916548
2473 0.8008757001785166 0.6811024502159946 0.2894265748471069
2075 -0.0036755178075385322 -1.1786586719613905 0.31676825062459507
2080 -0.21595986677690074 -0.7581238213670739 -0.40595043616979015
2474 0.5880966122408716 -1.2835729617570901 -0.9933387978453516
2477 0.3753773763389539 0.3213270399209957 -1.139353843808181
2079 0.4237420942134215 -0.1071254321572693 -0.32342279288048703
2478 0.4396821358540755 -0.4138585341221058 -0.8385625877973247
2083 -0.3616868483505085 -1.5959053583679257 -0.3382236317027054
2084 0.9997882542986379 -0.6782100119836433 -1.4055215568876285
2481 -0.8736595514830852 0.012943256209486633 0.34150609749877003
2482 -0.35141594084509015 1.1897145042198116 -0.2961511059969066
2087 -1.5094304157528058 -1.2697285734426036 0.7488948486233804
2088 -0.4934508226491389 -1.1198469354933802 -1.1682645406524093
2485 0.1731758062496527 -0.10136025385239524 -0.31443192498507777
2486 0.40844148513658457 -0.21782016543644456 -0.3771205911193696
2091 -0.11228796937694199 0.29265644221102577 1.3740383403656005
2092 -0.7592943347755512 2.019104209515265 0.9421965464086747
2489 0.8053158209844123 0.2058717852512443 1.0181445713858717
2490 0.12844467508028565 -0.16141900588264851 0.966773964688484
2095 1.3380071519196821 0.19262630189735522 -1.707877543944259
2096 -1.1384779522983988 0.4781312102186631 0.1321751132337016
2493 0.32716613495639585 0.48828543887411713 1.5131354114346207
2494 0.13867176240725418 -0.21137353263682093 0.9021466201588516
2099 0.32186103392065846 -0.0014605020611510172 1.1958446471360582
2100 -1.0024077274955976 -0.46844277184201333 1.0306293763455212
2497 1.060184853789473 1.1743484091259964 -1.34884223610932
2498 0.7016024366020701 -2.558801380838458 1.3748832759070135
2104 -0.22385758815709927 -0.05466445580654787 -0.21970379744651808
2501 -0.7661332657970723 -0.037275283461121966 -0.83015933762398
2103 -0.2081975065222949 -0.5169254849880012 -0.06099376512094466
2108 -0.8209011651385857 -0.34534866677066667 -1.016054805942844
2502 -1.0504246716031618 0.8979016717399623 -0.6532835075444734
2505 2.377752045305832 -0.7944209256346172 -0.8000075229750261
2107 -0.44213716464541675 -0.8336200348047493 -0.4867608850124568
2112 1.497137296890906 -0.480354525129762 -2.834739569869347
2506 0.19957103540997834 0.023394951061665774 -1.1494266928343582
2509 -0.13721401563812183 -0.052328265177194924 1.3116224012566442
2111 -0.187602249852904 0.5566243708078222 0.223176323074195
2116 -0.21060812196453063 1.02638208687916 -1.0270934185760157
2510 0.005410938375992165 0.836160464274094 -1.2145778183045761
2513 -1.3124033915158302 -0.16732915601896675 -0.5504203130875446
2115 0.6590167084767755 -0.7568587097996785 -0.9125680443068053
2120 1.3929982601970194 0.5336374302051434 0.47905743658896155
2514 -0.4477426356895297 -0.38577565720862345 -0.1609474923950149
2517 0.9975345280117831 -0.9181363631423342 1.8171487011714889
2119 -0.3173123079326505 0.17273607534420118 1.2658726153342676
2518 -0.5198813255518047 0.7038554103051835 0.40436982575436275
2123 -0.15896307787810623 -0.021621267619306547 0.05463466217000099
2124 -0.2571576681988978 0.13308900179908 0.22364404665159385
2521 -0.9051811061613254 -0.08799811316289967 1.897488670789593
2522 -1.1150460787100402 -0.27466673636964267 -0.1976279911305941
2127 -0.09957194082633206 1.7271538536878455 -1.6533251793533634
2128 -1.9077736562604002 -0.7568914422621404 2.091112170564365
2525 -0.891741830189174 1.2652077328917068 -1.0500322602604195
2526 -1.5341074121285863 -0.7003099645944536 -0.7694181823796854
2131 0.5331700930486608 -0.6958496495790355 0.8386574758818459
2132 -0.07024175047273228 -1.2049040751925282 0.5539483321890957
2529 -0.03764490572809294 -1.7913199479942323 1.0343405001413666
2530 0.6069733806255421 -0.15222119174278537 -0.7152666154830195
2135 0.16381755597840364 -1.2206315129618472 0.6269600798053108
2136 -0.7998899124210246 -0.18046929226469266 1.6904824417411604
2533 -0.07780785423985163 -0.8606719304827646 1.3639535741475366
2534 0.595759708176085 -1.6229300085600304 -0.1911341021931647
2139 0.4270584441809912 0.6638930350709168 1.009145445555312
2140 0.8684138424743567 0.01168348340676878 -0.20606527328154917
2537 -0.6397635676326008 -0.8832455233416163 -0.7945919408135278
2538 0.38877123917667505 -0.01056969566454568 -0.6244932388692853
2144 -0.17105214965754376 -2.1189112427948094 0.9068812063217809
2541 0.0036962141177081242 -0.052142199751917626 -0.2562138229435819
2143 0.5360008118380574 0.6256547726063973 0.5201587560268963
2148 -0.4008960733058247 0.9427961144071125 -0.4651803359202805
2542 -0.2610488308302658 -0.8211248820925153 0.8273744881298836
2545 -0.003318469294787997 -0.5507414549172457 0.17755460080788582
2147 -0.41507850529255674 1.0067005117234042 0.2668734570819486
2152 0.5001818630641551 -0.01910594489497673 -0.6461791076592257
2546 1.2648737746775667 0.07104717697183657 0.5148599724554942
2549 -0.7480999226823035 -0.7416134846056829 -1.3312108876972046
2151 -0.16760123359065202 2.225934730104131 0.6265827849492392
2156 0.8901408574570091 -0.8273308127567073 0.009654240237080057
2550 1.4103611218124623 0.9434958222675828 0.3700943433698015
2553 0.4500313917452815 -0.5099583823330205 0.021355565170660416
2155 -0.5980284759904081 -0.18839540219139284 -1.4100417957635913
2160 -1.1344689832853279 0.11925378065083331 1.965615183371364
2554 1.5424574514097447 -0.008350393154930306 2.451416659445168
2557 1.6193110065776937 -0.38462725925341945 -0.13609918885214856
2159 0.19374517363754928 1.505998804697671 -0.5518303630098946
2558 -1.2772147935780878 0.394928382793229 -1.3677961002799832
2163 0.4556653612975538 -0.8630579730537071 1.0984117665765358
2164 -1.1078519082603673 -1.4145445372034418 0.2207946643071054
2561 0.2638906014924035 2.178910027351883 0.786755795868726
2562 -0.8279758130548828 1.2008436935422457 1.228472477402794
2167 -0.42856504410839336 -1.6709192226467884 -0.45386788507741477
2168 0.3676362210501138 0.4000468868978878 0.3094529368774302
2565 0.3568465865213888 -1.2036037131646884 0.01053504743155103
2566 -0.9905719758711721 -0.9191090034510931 -1.6453831228520452
2171 0.6515578414705475 -0.6726370775864856 0.6557030626567893
2172 -0.7340899932780605 0.702723564606895 1.380098469703896
2569 1.7895308492289634 0.12019589863326491 -1.0774678110835978
2570 -0.6905664241151618 -0.36550078474567266 -0.6211644583128532
2175 -0.17652313968541436 0.3653110143064759 -0.4844541754053871
2176 0.3036472631428218 -1.3533130255441357 0.047431817737951014
2573 0.9749151857764016 -0.7063833368908136 0.4385540055952206
2574 -0.4243188988249278 -1.0996455229864242 0.28926577485445654
2179 -0.607503374925467 0.6468970927106952 0.10613138170166452
2180 -0.20598686765930901 1.1397941581196558 0.8902975344620262
2577 -0.03099834685464193 -0.28064615131351583 -0.2993545957849397
2578 -0.8387077063992834 0.1755254058901362 0.012160467028043374
2184 -0.37258195555460316 0.5973546648761847 -1.6214423193513718
2581 1.482451699860563 -1.5431163017179126 0.8187985147358948
2183 -0.5190236212872938 1.1090672265852446 -0.6023632410045804
2188 -1.6370317986555583 -1.3340348655333614 -0.34209570180718896
2582 0.07626578658381938 0.019992454591265987 -1.444980701128838
2585 -0.7084036596751512 0.9984687807958846 1.1399134582556671
2187 0.19275622993221386 -0.6848914482294454 1.5478256473527012
2192 1.896988035796819 0.03550291082695084 0.0655413705390595
2586 -0.9269144667595794 -0.05065310072935314 1.3926800908715424
2589 -1.108661079220345 0.3254378185662563 0.01666253066481885
2191 -0.6466254400472726 0.596585796515975 1.3740544565998993
2196 -0.25913664936719827 -0.4088953069017557 0.10082655553320141
2590 1.0572335082731492 0.6078528634089978 -0.7786128973946533
2593 -0.13865102506595814 -0.9891480943708183 -0.08616997446838075
2195 -0.08898721456251417 0.8714185802751435 -0.2336833349453067
2200 -0.24165299131476706 1.643839373447342 0.24923792874592005
2594 0.24420829082549486 0.4237937662549938 -0.41896804301082935
2597 -0.10283993564938405 0.20190943674021067 -1.3390653037475022
2199 0.05255153966381076 -0.6048983441056405 -0.4179727788446246
2598 -0.635466779929629 -0.7181051709857266 -0.8904253146937483
2203 0.2695527637020856 0.6422529305709193 -0.3426773130937066
2601 -0.06804164630378584 -0.5897093445113817 -1.1927674978426352
2207 1.1939674147936614 1.0417280538464675 1.1323697973034108
2605 0.3582439643896897 -0.8267116422624977 0.1557791578359337
2211 -1.3219799914687351 0.3620435549019924 -0.21210393378089945
2609 -1.409928142359434 0.428773893813986 0.3700858860504701
2215 -1.1217724897757193 0.5385571084789347 0.6433516252788755
2613 0.7503280675169225 0.31548545208867146 -0.8415182099691672
2219 0.9113133457364209 1.013514819140836 -0.6162338267811323
2617 -0.6849812544436885 0.2650475960740966 -0.13322961216575224
2621 -0.5730022844906338 0.2472329356130273 0.8833278137302418
2223 0.282484412334298 0.9976651781145419 -1.1762852745600558
2625 -1.2121772482551696 0.7451919496023799 1.2175852701849519
2227 -0.44608846926033213 -0.288113468997948 0.6270823025274226
2629 -0.35073341019072285 0.4014447939936459 1.2757829363942448
2231 0.0868769194435472 -0.41983754643695625 -0.09923222474105287
2633 1.7883883944939332 0.16030561565816112 -0.7720677883055367
2235 -0.34115887382188026 -0.22426048932257 -0.10400584525696839
2637 0.3425014285360239 0.3265232388880728 0.3431198434846441
2239 -0.5082466677048372 0.570700465479589 1.3940580713652182
2204 0.24016380078610516 -1.0861298022719803 -0.4009298203219694
2243 -1.93818309189418 -0.19013748917540338 0.9105293254872728
2602 -0.2747024919179936 1.3055520849426456 0.5229875597892896
2641 0.17003374175721692 1.6779467596301918 -1.5940687123768533
2208 0.5087916530518186 0.3374009242275568 -1.444597855627279
2247 1.281238098116305 -0.4718228128728757 -0.4849881449673936
2606 -0.30029826866763354 0.6105242849704373 0.2061089958492518
2645 -0.8690248434567971 -0.38188146033883535 0.07251451825515545
2212 1.192355828025967 -0.3002930352516516 -0.10144830322267719
2251 0.2655719422089128 1.0109830372381485 -1.233598035186058
2610 -1.1948465364796013 0.21568037031453036 0.27929434315053514
2649 0.7570999754633511 0.6743925007942523 -0.3462466509879331
2216 0.4945424360413239 0.9864014057795828 -0.08276021798181665
2255 1.0528523992297771 0.06113386929830958 1.2921756116840826
2614 1.008661917938734 1.277509834182458 -0.7228876059000696
2653 1.117334348608292 1.0927710682616594 -0.2761302567084091
2220 0.040360507156824925 0.13563968920064234 -0.1176494934775846
2259 -0.315463137490877 0.6615698517336006 0.005084323120655737
2618 -0.9635817188590603 -0.03809598414049209 -0.05735932488265219
2657 1.5866345549500804 0.3187334054999028 0.3311807029814837
2224 1.302366511672017 1.2267410264103071 0.29398550189787337
2661 -0.6688427939944148 0.1387385098409579 0.945615166235721
2228 -1.2759057114366892 -0.21047771396225595 0.6430561391160942
2263 -1.3551760793359078 -0.49686792347229564 -1.3751162110233885
2622 0.2611981495213841 -0.3522468140367664 -0.67416239638979
2665 1.308964152458639 1.1717341552140415 1.055027697703747
2232 -0.5743828684411475 0.33640022832161454 -0.3944948803881642
2267 0.05948436706627171 0.007073194417759887 -0.27191520401187025
2626 -0.16923182448664129 -0.472670089726692 0.35143762272507434
2669 1.0249802219348256 -0.07581658356128979 0.697358795834846
2236 1.0763499449726621 -0.30168454625091207 -1.5430844911316304
2271 -2.292695424023638 -0.0827054178017465 -0.28655860735728655
2630 0.32735849886841717 -1.1892762405457968 0.04120430929336255
2673 -0.24888831041292744 -1.1325780543116681 0.6380802206249478
2240 -1.3442409880129687 -1.008281269258374 -0.11871952704245928
2275 -0.21144764700982133 1.7922924062288992 -1.4454827437235767
2634 -0.5689000844865583 -0.9115486521389545 0.06682311927031481
2677 0.5600008981656868 -0.8267245563900687 1.0252529550751925
2279 0.042989486337904594 -0.9966235307251005 -0.14186665534768392
2638 -0.34593443931084766 0.49687440610044625 -0.06315359581972489
2244 0.20726488197618873 0.2863731234235112 -0.18412506192163888
2283 0.35973972609891236 -0.017372065360443653 0.8508517489330032
2642 -0.0045555548084143214 0.4526894684905889 0.6373647786021848
2681 -0.13493213948476848 0.12196020432335525 0.19497274091130745
2248 1.433114607190171 -0.3484877065346065 0.25765941503699874
2287 -0.29371586937230465 0.9013812100386791 1.8154033145256492
2646 -1.2578816726809186 0.017097801649561352 -1.0346216849876109
2685 0.05208165968500524 0.8305604644357345 1.5312911678259327
2252 -0.5191930997536273 -0.0008725975762521113 -0.8307453611608012
2291 0.6760689559339489 0.9538277005103576 -0.3662773859171214
2650 -0.04987657252821853 -0.8238880398475952 1.580550230266209
2689 0.7956833102096579 -0.15325514948259988 -0.35773883520527194
2256 -0.8847913083923657 1.2252616040456816 -0.7020038659202471
2295 -0.7610870973758508 1.8768111626729207 0.9133564525893176
2654 1.5137222789681535 -0.6427748242587787 -0.8766458883099214
2693 0.5378097763060553 -0.1863922495075633 -0.8178010100650588
2260 0.09931950481674326 -1.2713462734897814 -0.551948455854125
2299 -1.1879011449912678 -1.0303396021784648 0.9276248095938872
2658 -0.5490123216589646 -0.8737915342366726 2.86284536737208
2697 -0.21712682578608267 -0.6187765215962041 0.021241338707702534
2264 0.5032731885201858 -0.0792371577649068 0.11246529221996045
2701 0.9596841445334421 0.9376785548217013 -1.1518295556563551
2268 0.5536850801315392 -0.22064372080456088 1.1893452975955596
2303 0.03572410762736902 -0.2581498685455812 -1.0480489259152483
2662 -0.5714252604263209 0.06928890283206987 -0.1501492551162147
2705 -0.005475601432274709 -0.0993258039480938 -1.3489614517128807
2272 -0.2034359604583269 -0.30962683653000905 0.24603036991974708
2307 1.6640980671859962 -0.20794851414553814 0.9319310662408481
2666 -1.0458672471357566 -1.4702568012656092 0.2780884076527926
2709 1.1153407592723412 -0.6806255587321957 1.1892879365029105
2276 0.7580161328361985 0.6010062924697465 -0.3582682855441157
2311 0.335061822901165 0.9332812822088219 -0.14607634265237204
2670 0.33842166792751466 -0.21295512091222332 1.6921941154812585
2713 -0.3457223137338703 -0.4607046058903393 0.10903093793145603
2280 0.40663509906170675 -1.018848142233333 -1.132734261867383
2315 -0.620617505472362 -1.7363373868880796 1.312387105007139
2674 0.2903964798120228 1.4764775408997444 -0.6333282001974864
2717 -0.6638292993068422 0.9131169199467974 -0.4166022304715744
2319 1.8704311784844558 -1.16243558899101 0.3428973142335694
2678 0.7626219873563373 0.5365190825486977 0.14612459427323618
2284 -1.4333579733679476 0.9181959694394679 0.5565835057263683
2323 0.675758360702524 0.01842800263872818 -1.055699166134319
2682 0.8981550789019738 0.974448708842598 0.12372062980395053
2721 0.6794588866082402 0.3415776204721447 0.8439723621920472
2288 -0.7147625974848315 -0.42314637171427866 0.36832470050248095
2327 1.4042287885961295 1.0725017762067315 0.40624688617368687
2686 0.45454818518000745 0.27779752795256524 0.5517608655037082
2725 -0.5561270694286549 1.5167508202118367 0.6851909246151648
2292 0.5834255600251904 0.9146318360035338 -0.6287067427516622
2331 -0.18338461661091882 0.913758214545001 -0.9187217644625612
2690 0.41393135385340374 -0.9737520958063038 -0.07180976560647175
2729 0.4119102290650593 -0.8186980808589681 1.1051589997616817
2296 -1.2249874994128023 -0.92358840887213 -0.0082016762084967
2335 0.060693393600445275 1.8513518145613064 1.6284094569800878
2694 -1.3747580267830037 0.08368950078765751 1.279700152361268
2733 -0.1342048187519657 0.8157539344906702 -1.526220344497848
2300 0.43030847367020797 -0.2818696010649469 0.6104496731988114
2339 -0.6765364432454756 0.44576798242100474 -0.25301255562395536
2698 -0.17132257038279816 -0.06810476571702388 1.2690181660031095
2737 -1.6112722630483318 0.6263635837609278 -0.9581090160057818
2304 0.47878815138084796 -0.5049515094107302 0.009700194117984747
2741 0.912377319328131 -0.5635720537002407 1.02165957583134
2308 -0.529916683440776 -0.5681308438014132 -0.11914421808992555
2343 -0.750986170135839 -0.5471901271741443 0.049230347118583935
2702 -0.6742504101340612 -0.7287054848375365 -0.7688730164668608
2745 0.36627148866224385 0.3353578086345827 0.21168403897642205
2312 0.9520097143324016 -0.2972340368191523 0.8093991722104598
2347 -0.8418342422876917 -0.1855912540965655 -0.7574637797842894
2706 -0.5327001518690123 0.02535696919641156 1.0114788320380372
2749 0.09245602944531793 -1.2936691206560882 0.301864975626602
2316 -0.9293426564249831 -1.253834225978523 -0.08429375933376866
2351 -0.9080629208242564 -0.688802369921669 -1.553657947987999
2710 -0.8619293250596723 0.5825242098999414 -0.1467779280831724
2753 0.40271375260559306 -0.012654911737968953 -0.634131699171872
2320 0.6825303555128722 2.2957403436334944 -1.2718116451322563
2355 -0.30916298386650115 -0.1960153695750898 -0.5969288421606899
2714 0.33635092404701067 -0.5694960813604237 -0.7678296107008789
2757 -2.534505052378154 -0.10442422765704294 -0.45123415587386856
2359 0.5109600099885178 0.02002679500480596 0.318487465991718
2718 -0.7727907269107229 -0.763709970401025 0.1199277636484449
2324 -0.10055860372080033 -0.5512035763638088 0.3548443773604832
2363 -0.8149538521145835 -0.7546181083748399 -0.7734355720771454
2722 0.3569911894649696 -0.5141908366098139 -0.17406093056065433
2761 -1.0346745770785348 1.0597803514467394 -0.6447895126826803
2328 0.3331391676320803 -0.5080825514491838 0.6495000954507542
2367 -1.6511161871967326 -1.0009808243525693 0.5056561841436743
2726 -0.35653857546651413 -0.6157445048486244 -0.5870574371562602
2765 -0.31425792470304365 0.0018897845208288612 0.5710532010417713
2332 -0.5949599334293955 -0.25871449183917916 -0.3909601521463007
2371 0.6416991455481681 0.6789100705406275 -0.2263288193146885
2730 0.7699806049832275 -0.2613738144471674 -1.5518818677147148
2769 -0.28919242564893977 0.1315997872100884 1.615291810086439
2336 -0.27004815010501365 -1.3983736987481459 1.3161281922351722
2375 1.6033336735585437 0.14050974212033926 0.1594163997828885
2734 0.05862321081013432 -0.11539119470183126 -0.7954314280132008
2773 -0.10374277422267073 1.2135111532159044 2.1377951673446027
2340 -0.9657330974460093 -0.2134319961002947 0.03864398724765726
2379 1.5609485700637191 -0.9618122676882338 0.3996580815622793
2738 0.5491114925638784 0.34819123610057 0.5353083456906339
2777 0.03293506995488239 0.9286745506198397 0.4290803412023739
2344 -0.27116853837157 0.5619546283399145 -1.2633807606472622
2781 -0.9637884009470937 0.1694367953675031 1.3823605123295575
2348 0.6910775620881485 0.4805027164081837 0.3534399001451484
2383 0.9935202445264576 0.7981244411843221 -0.8781060874935782
2742 1.142752074251314 -0.04202067726980374 2.0005552489618914
2785 -1.080996656478692 1.5067777897170822 -0.06463534755010154
2352 0.5601426485898982 0.6845201759976016 -0.28640176027484426
2387 -0.16191006806505104 0.17488289545521563 -0.5467683220811654
2746 0.5706174368198726 1.0979740759498562 0.008479030537605375
2789 -0.5568955181530912 0.11939659989264237 -0.8546429049833439
2356 0.2888133730105818 -1.0878142806617037 0.8272408580440045
2391 -0.019402113072786165 1.1036899800142121 -1.7789761005927762
2750 1.9830692685246842 0.5053670529136178 0.10633767858320423
2793 -1.3801264480798636 0.18308205129293492 0.15319819115249536
2360 0.17251023947177174 1.3651107743411386 -0.8204042622876699
2395 -0.5215986752284616 -0.4676710916956113 -0.3540863652828649
2754 0.08868645554878066 -1.0724686689937246 0.8679145418513728
2797 0.1418368179629655 -1.7023056988783445 1.2712526732871372
2399 -0.058920217880448225 -0.665741694759575 -0.4930726567679352
2758 0.5960981610496362 0.30646303436657346 1.4553803087151909
2364 -0.22289799436719193 0.34879299162340344 -0.5620154049928092
2762 0.3453204432229328 0.792149839800417 1.0910650034250118
2368 -0.2375990230288112 1.496800376963861 0.23625431532873878
2766 0.2004981444609354 -1.448085007486669 0.4878941640870981
2372 -1.3028097057486434 -0.045628792235497706 -0.19933201236800852
2770 0.8160167199330354 -0.9080421311431945 -0.14093515345782
2376 -1.5586602852204197 -0.1949375417407034 -0.38820454242671076
2774 0.19195465789377017 0.1873233497564155 -1.1336321395330378
2380 0.3080139446261159 1.4936763738900116 0.9860191794412034
2778 1.0880123879410544 -0.2624314169139075 -1.8750036220092907
2384 -0.930245620144176 1.4423291236572109 -0.009944887095544204
2388 1.6613777107959582 0.9988365807896853 0.44571309118577684
2782 0.9193829209967854 1.9843640937813596 0.5577953221717306
2392 0.5235206810844408 0.05599341628962773 -0.12224571767462616
2786 0.04969756355413969 0.5764274140488772 -0.17111178928640586
2396 -0.944260091093606 -0.0926625167529956 0.22728326209945585
2790 -0.3388897722665659 -0.9263429098704984 -1.8198073236828878
2400 0.6440431129590926 -0.1606332973456658 -0.6308460252713836
2794 -0.4829330619327096 0.19525396861844335 -0.8225928867745366
2798 -0.03806866720013503 -0.039410999638166494 -0.9141550083141418
2403 0.5745859461281185 0.5981577723929118 0.10651162461823818
2404 -0.031081585398890534 0.5427425102481072 -0.8253350896453238
2801 -0.6350152993615709 0.45210399656233463 0.029157412725292414
2802 0.4379502130020516 1.6313689776457794 -0.729857107344883
2407 0.7713793513855158 -1.5970716853879372 0.10128615381154929
2408 0.4904975922647016 0.010194749918603342 0.6010116013504051
2805 0.407060168997751 -0.8201721956056095 -0.31547355097774943
2806 -1.34302126664188 0.18866546541780907 -0.3340069019940474
2411 1.1119433440588253 0.11551413214428327 1.6663299064383656
2412 0.9968480260572605 -1.1023167765378763 0.581029462911028
2809 0.18408688359171077 0.7196276608987784 0.20254511335916048
2810 1.0554931283828268 -0.781193784722255 -0.6810723623516174
2415 0.19739316565521736 0.40564274260218425 -1.536815614720994
2416 0.7108723682234597 -0.7547075994497041 -0.7873555656721213
2813 0.631760300479606 -0.1364786804627842 1.1853198240474896
2814 -0.016867333291322777 0.34422182184535527 1.1288030834064016
2419 -1.0674761971501374 1.252183723538294 1.0135135761955523
2420 1.1341777536610305 -0.028804125113329068 0.9309396363905105
2817 0.15939642950610602 -0.3297749646212869 -1.0087614111425331
2818 0.294923242350911 0.44785255897898524 0.8776576318812858
2424 0.12927144150062966 -0.9894462186884747 0.0848788605052798
2821 -0.7119207436658633 1.0111406134685808 0.2345932200309181
2423 -0.012276236772260966 -0.5851942431230133 0.1733680003344455
2428 0.40383206179485204 0.42284705552507634 -0.009500365942418093
2822 0.6375459137461057 1.1566352905868076 0.6523279214791542
2825 0.11144846719357487 -1.4005928060158006 -1.0034484073707264
2427 2.3263152274680357 -0.5952849019414933 -0.9750541058844991
2432 0.27812374610395507 0.8618575210816427 -0.8116954839841259
2826 0.36925572159963727 0.951765626382963 0.4021047749586501
2829 0.23468409366565532 -0.2637862941745293 -1.0647745925680563
2431 -2.0177409642832242 0.4492036209938813 0.29119720579580244
2436 1.2142538506548946 -0.761926535718762 -0.19668532870012778
2830 0.6980950937245057 -1.0189958388244926 0.4561996208005592
2833 0.7961253711800906 -0.3083827262493761 1.0944888664840124
2435 -1.4726168910726256 0.2148641219238862 0.41608762745214206
2440 1.0991182406583853 0.1400103374988142 1.3316821712437514
2834 -0.6512907256362489 -0.4607349883974289 -1.4029822656640112
2837 1.1870208818360304 -0.09794635537184994 0.06892219987754118
2439 -1.0272199612147186 -0.8301837070202608 0.18922919487594478
2838 -0.233787666631527 -0.08477888531609563 -0.5492999547869986
2443 0.7537989733150089 0.9235092646200302 0.8646902033447725
2444 -1.7202253185646537 -0.01875149915974296 1.0304380235566721
2841 0.6462366736844639 0.25562550033541287 1.1948862455030704
2842 0.47354786727039844 1.509062454331745 -1.6008878258626744
2447 -1.361921225409032 -0.11856790795028724 1.1661283827324065
2448 -1.6782480901389603 1.0038126226039288 1.659530875388142
2845 -0.19216959868417122 0.1386583975267292 -0.8595627339532481
2846 1.403419322212513 -0.2836224262762999 -0.5403287111408309
2451 -0.07256443965933371 -0.028370628144973792 -1.162546478437299
2452 -1.0093733694155902 -0.7172869291612161 0.4163816370270519
2849 -0.9794875201344652 1.2985505038197762 -0.19582462718226087
2850 -0.08925815266037164 0.6598396850274698 0.020330475877346037
2455 0.5350881415951431 -0.613503441113296 -0.44758062392873543
2456 -0.34900716041274105 -0.02642288652505966 -0.875338022375098
2853 0.22146168153127258 0.049877741410365564 0.6632904142905119
2854 -0.6630009329789316 -0.21247383573104117 -0.4978450889338825
2459 -0.2615921125296386 0.6124607369162296 -0.06733259981158998
2460 0.005819150342163952 1.1371311981990961 -0.1551878169641244
2857 1.0225668355494129 -0.14024479869303413 1.2560931726895144
2858 -1.7850678076599467 -0.3927585701099772 -0.03407982639501574
2464 0.105192552947432 -0.09872112120646936 -1.3078995315406834
2861 -0.7665581422980707 0.525033354935844 0.35880248616918803
2463 -0.1261929718091235 -0.5160555355778177 -2.2060284772045695
2468 -0.7158410178034946 -0.2760256984330532 0.010247322700555044
2862 -0.7769293815144394 -0.689925252185735 -0.0038816826311177596
2865 1.14555145770707 0.9689229343882911 -0.7347077520622454
2467 -0.5099346635078699 -0.7940722713575725 -0.6716936229414708
2472 1.6256404117542143 1.152395743284895 0.10139335813035671
2866 -1.1944300273095736 0.3235550118045958 0.3005089307592779
2869 -0.39675661932873146 0.03299931770063049 0.4954390623949725
2471 -1.00134705072214 -0.17178927413590026 -0.3733896072031142
2476 1.059259175082074 -0.3340132347675401 -0.6638746268073488
2870 1.7986191626159458 0.6863087554116375 0.6640355486926144
2873 0.49778460210772046 -0.8335648199238466 0.020932800015679764
2475 0.8141751602938054 -0.375090027749097 1.0595004720512373
2480 -0.8399252130631136 -1.1231016725625824 0.8328187212781699
2874 -0.8782445817154345 -0.8502985756974092 -0.6394864955967235
2877 0.5831638444163202 -0.9834239710603804 -0.0680506376023316
2479 -0.5132864822309744 0.3876064049340174 -1.6082628544367594
2878 -0.5833259971577889 1.0661956224287998 0.34748682655794844
2483 -0.0754242966897827 1.164529498408053 -0.9574683283167043
2484 1.2454090017308497 -0.9585012557723089 1.0420700288474425
2881 -0.572378939594858 -0.7456951707965346 1.8856419212159599
2882 0.9574035021054096 -2.0282571319685294 -0.7724535721947756
2487 -0.566264575566142 0.2615240720303278 0.9185123087024514
2488 1.2535524045587394 0.27437418553735476 -0.34310563840425035
2885 0.29006633561149264 0.04951792651406933 0.5687638935823626
2886 1.5974075570823274 0.5227091135693 -1.1362266118801896
2491 0.3969577066970474 0.12516247360067 -1.1000188444462642
2492 0.3963532779047301 1.667667386531965 1.697817000690109
2889 1.4401789464179926 -1.0098660741360581 1.1346191201945603
2890 0.37739616423499855 -0.5177161145517043 -0.185920619846297
2495 -0.9503431941059823 1.4399511036453831 0.022821614948952292
2496 -1.3882084168762858 0.5167172850066006 -0.5065682074770067
2893 0.02889911080177785 0.2519814393120131 1.1027251692873292
2894 0.35001574025848914 -2.27459110511993 0.2833734200919509
2499 0.5961293497524627 -0.9985158842379631 0.5841525227117381
2500 -0.4853297489504669 -0.13365851285800245 0.9411334432360621
2897 -1.562224035645724 0.17893321013419383 0.10255469709330148
2898 -0.42031481540081916 1.2660473404527253 0.029246299728427544
2504 -0.9798649837506184 -0.7601373749965897 0.9504018039108361
2901 -1.9762673754529487 -0.4583568338137455 -0.35470064717085026
2503 0.1963359496582043 -0.0686855284669551 -1.1994741160449052
2508 0.9627210445368702 0.8074731985576633 -0.45465871625250504
2902 0.4856992837748958 0.582796545225381 -0.7787215406093352
2905 -0.9930899556264892 0.00895837873974913 0.14498672730838577
2507 -0.5970488115449277 -0.06163059980088571 -0.27337505490501907
2512 1.476415324844135 -1.0933948647247946 -0.20500473444472694
2906 1.1178114654491742 2.764259619301125 0.9511948346564529
2909 -2.353680453489423 -0.21903641314081027 -0.26860877761667923
2511 -0.31388542665653807 0.31110010435365115 -1.2515056528259416
2516 -1.7227025121854842 1.2297622799052044 0.24964298481776429
2910 -0.032238062599949574 -0.5152154452699055 -1.5144474877383016
2913 0.17050631835367033 0.837980035715045 -0.13733910655820897
2515 0.9050931394395224 -0.6071367691788182 -0.00024067421270895437
2520 0.448131055117173 0.06934173602434196 1.0283966464469425
2914 0.17431779997786118 1.1712914498958837 -2.0677349132872296
2917 -0.5184946592281976 0.5069596126882981 0.8607126450407784
2519 -1.0065456067224936 0.8383219000584955 0.1359994743880179
2918 0.3905156956025733 -0.31877910001076154 -1.191522849407102
2523 1.2085025900210382 1.010313959759971 0.9929952984303304
2524 0.950052474503728 -0.6179070640779665 -0.7352044028940428
2921 0.5615100859072985 0.5840630012011649 0.30455989401960243
2922 -0.526612402191873 1.5844362788888524 -0.16354674773823008
2527 -0.21192059110607492 -1.4470235553019972 -0.32592807832910964
2528 -0.4171010238024576 0.11044797310900879 -1.7246385416166035
2925 -1.4656617251375907 1.2442668302496618 -2.1544267061992635
2926 0.5357636012793839 0.13414605934842183 -0.7238474797009296
2531 -0.70436973888029 0.22815612741527216 -0.3171628226900113
2532 0.8790084236145873 0.5609347098742672 0.7548043376613816
2929 0.015539307360945304 0.7495492714090094 -0.555531061488427
2930 0.41107950043071567 -0.2540748338959521 0.7192561906901425
2535 0.8437847018304885 -0.02175322027831081 0.8047818287759431
2536 0.44881422539279253 0.26805973729498905 -0.23081572179965812
2933 0.07956433181088682 -0.40280082471897904 0.7871657362660315
2934 0.7386261019215986 -1.2304920916633797 -0.4954277895389137
2539 0.47672489588552613 0.18393980868502374 0.8795391935968283
2540 -2.0529434995207416 0.47981655366103276 0.14108663157220688
2937 0.4242736513036658 0.08413931593050897 -0.34800456509430017
2938 0.5918578736084116 0.5031186997816236 -1.340917508110927
2544 -2.100137077498313 -0.6131337220715978 -0.7759325023255823
2941 0.17459567878235757 0.09133917485966615 -0.4565408123013931
2543 0.8536404460283475 0.5614337585556735 -0.9773922177539742
2548 -2.0696724033266034 0.8332965999169248 0.9644860400731583
2942 -1.01209422570034 -0.37976188225215923 1.2142446921526033
2945 -1.0807182769267996 0.5905271233515708 -0.005220634367065321
2547 -0.23424388684643496 1.5467383085332937 -1.381585717212319
2552 -0.5185669561513814 -1.139746055989054 0.5305776507435673
2946 -1.135183740021119 0.8079192330024213 -0.5907975367461087
2949 0.4466463701576194 -0.8687777751937642 0.2495148658526225
2551 0.2278479842151698 -1.4902736951074491 -0.6216891805656807
2556 -1.2363988887929838 0.9335066020731108 0.7313472446170728
2950 -1.501343263711602 -0.7392027632259144 0.158785781962387
2953 -0.5538740535871206 0.022363667229811472 1.5384171905415114
2555 0.972619951700831 -1.058743436529495 -0.13756065434556797
2560 -0.5466124339570622 1.0641910925716997 -1.1555823192808916
2954 0.22043623974456084 -1.2906650797321664 0.3000695725304394
2957 0.2193503348144289 1.0256865773067338 -0.9776776957802873
2559 0.2663174014282562 0.15009013041961466 3.3295537219859077
2958 -0.08319879373064329 -1.5561490589201084 -1.111389976053689
2563 -0.01961944695468838 -1.278594560095416 1.4650933978902
2564 0.8854269987408357 -0.32845595069361344 -0.12514840105685304
2961 0.05743415241460906 0.3831921983022002 -0.5858779031985315
2962 1.0418499438087523 -0.34605520150028934 1.6749010860128044
2567 -0.26927141494314516 0.09717309083468466 -0.21286136908577952
2568 -1.4251335037959831 0.010470823932375377 -0.15016398932009992
2965 -0.71813911627126 -0.5130453116541959 -0.33985244818527194
2966 -0.4328576032354337 0.17355366380317383 1.1624155381849024
2571 1.3605949038858125 -0.41585559623672463 0.07013212274858341
2572 -0.210322496940723 0.6218173604772336 -0.631783741002837
2969 0.9595843767673815 0.6693897024943494 1.5531272494077537
2970 -0.24872671926090725 -1.3550850260013896 0.19887518810555357
2575 -0.7669667797213031 0.08178608635671578 1.0126246350640518
2576 0.5086450137943811 1.3594437226640226 -0.2630555556525942
2973 -0.4556248517716279 0.340063767693792 0.07757631496491987
2974 0.611659239089337 1.0367713104433502 0.2782637572087896
2579 -1.240713113777743 0.5437045494936753 1.2123362755937375
2580 0.16265766192805622 1.6339117860610797 0.631695570022259
2977 0.6076967158853983 -0.6479278192258746 -0.7258997700254975
2978 0.8975486492940186 -1.4509725901758297 -0.5633592502907908
2584 0.5976263005999547 0.22526732370811403 0.239807674691771
2981 -0.04130729861999409 -0.6594258163006029 -0.3615321160454114
2583 1.1331238406636401 -0.8573471848667865 -0.5087883859842409
2588 -0.5832919607964265 -0.9590859708205337 0.571638217429949
2982 1.1890538960537231 0.036400699575598286 1.4866469033155105
2985 -0.683437495176079 -0.02171788707361523 1.6515139007664523
2587 0.2665549731277722 0.20934893798200027 -0.06386995621731639
2592 0.26775931271192066 0.10531600269084303 0.9308372920700874
2986 0.7075322466611133 1.3674363827285088 1.068079613250057
2989 1.2700112239982255 0.06677165726011838 0.4634873453883273
2591 -0.5853677622083441 -1.0447490491589566 0.21409149710099132
2596 1.0030731650860922 0.06270981827072881 0.35440858001893755
2990 0.896133155739407 -0.3681096090509583 0.6915358296234939
2993 -0.18615018793796292 0.4521985958731098 0.9881307780076126
2595 0.14672118049368182 -1.5507807115944234 0.356827622561035
2600 -0.05106450496638013 0.6254906109460702 -0.4790691124864372
2994 0.2466324652403937 0.1239433471189992 0.40765136615422765
2997 -1.3628980039032785 0.009053581308039564 0.060979070893206345
2599 -1.985463746394451 -1.2387336490546192 -0.7575654816746548
2998 0.5237746081229138 -0.62533466168078 0.15030157533877797
2603 0.7601424846999028 0.4529556205886859 -1.3435917414093759
3001 -0.08179890503142734 0.8226968518397411 0.14898474632243003
2607 0.23039382192222993 0.2761201134850352 1.686706312502587
3005 -0.014565748610277268 -0.3666407054231226 -1.1844250089953716
2611 1.0630539589829973 1.1889725836532474 0.6104998871613171
3009 1.269344312227438 0.7219890720730705 0.5078988234162014
2615 -0.6309086243012161 -0.9393090176466894 1.4664831343150744
3013 0.3014984854673184 0.44870416285075254 0.7294395747965303
2619 0.5753970074713611 0.9533346651832489 -0.09004296791689659
3017 -0.9576976716932628 -0.6860504220021794 0.5746643566969003
3021 -0.8639932375976181 0.1258817384419003 -0.961635368870211
2623 -0.7990714463572062 -2.122989304270565 1.3640838395828012
3025 -1.6615267376120149 -0.08145564990676321 0.5348257310363562
2627 -0.05206676860484821 2.284079571952638 1.7824280761124323
3029 0.8341608751192618 1.03010437353787 0.16568675579066042
2631 -0.13096159252894274 0.9001870831577158 -0.06039906321068377
3033 -1.4335183073428945 -0.2660444386956085 0.5289778589325836
2635 0.022968773058042683 0.9943586440235236 -0.8439320119542021
3037 -0.7511365946613797 -0.12043052846931743 0.09558901076772863
2639 -0.42456367129923894 1.7661006359594595 0.569185300887632
2604 0.38686922572097454 0.2067697744587289 0.4220877718623693
2643 -0.3075062174052151 -0.31652559019260984 -0.09205584499021732
3002 1.560274644373553 -1.0987068264622932 0.41450134015349627
3041 -0.9090089505591624 -0.2234953511099117 -0.6719505044300057
2608 -0.3861894323456049 0.6871023320361861 -0.11626443776095483
2647 -0.040018739063993655 -0.08394816992456122 -1.2026287268012807
3006 0.6075858637462133 -0.14769389521259446 0.12734538339938486
3045 -0.22482322778909236 0.137991301606275 1.2898310673283042
2612 1.3463747971449262 -0.4950326667137714 0.3402066484752162
2651 0.5936439570794424 1.5661559300174333 -0.042613931085086314
3010 0.23272438285826233 0.5036547585563481 -0.8078926480390515
3049 0.7663554698011051 0.8744024831897433 0.014475365402924021
2616 1.0313390477696118 -0.23105153137551107 0.7238980373859116
2655 -0.7652965369104697 1.3730724856767498 -0.11793780394155878
3014 -0.8876971307982758 -0.19330348021620006 1.9032910595620898
3053 1.0732531051776149 1.2023140494999622 -0.15230409638782474
2620 -0.6309035423202562 0.43778125602566254 -0.6605109290045236
2659 -0.3311684068886131 0.8919968675712917 -0.3728359580792894
3018 0.8945318402577982 0.925883492691995 -0.18157383164822363
3057 -0.18959019077586228 -0.5655321320233583 -2.256380880122125
2624 -1.6042826294885077 -0.5926642505094198 -0.38903984741304937
3061 0.6370792673031305 -0.12796272660142938 0.7642339134651505
2628 -0.5724188392074335 0.2783682766382897 -0.07081873872444186
2663 0.46441613072825827 -0.4073359599999367 2.2240039009700134
3022 -0.1452018381691512 -1.6500210563051279 0.27596455039047296
3065 0.6520212055392246 -1.474091414469995 -0.6783900603394328
2632 0.7367463102778712 -0.7181096832110535 -0.43581506153837285
2667 0.9546373115244178 -1.0616978305245597 0.8962802598824037
3026 0.22560449022088175 -0.6473705599289392 0.2640562619535808
3069 -0.2709248332326918 0.21738407371432422 -0.5838006528433712
2636 1.7106646021402818 1.7337447824329402 -0.9464220668797015
2671 0.18495085026220742 0.18234036136796924 0.011860409241128625
3030 0.9927401837520676 -0.4199012858593441 0.011887630147834631
3073 1.21031027309552 0.632324822431973 0.652428396516713
2640 0.06061668908307882 0.4323810686080668 -0.7484205255481371
2675 -0.8778893378351835 0.45945490290394353 0.09961084362575123
3034 -0.4033744374767512 -0.012497832965594702 -2.0872098547495863
3077 -0.6746213178277205 -0.11531164331410503 1.1248643461598224
2679 0.2953500793965794 -1.0424592158977994 -1.0835206087554563
3038 0.3540379365524717 0.1917504607451922 -0.16640851081119243
2644 -0.8552979804535377 -1.232533148629515 0.058139409297353
2683 -0.3225951412466994 -0.42580747804376606 0.22225275710309095
3042 -1.8730759859601918 0.9000323049968024 0.4087365696223345
3081 0.6205811233951909 -1.5096026224782326 1.1369328453846925
2648 -0.6252535765468992 0.7648952364753997 0.40475100377282225
2687 -0.46752227919726225 0.420004558641456 0.9520399097304086
3046 0.026351654400847697 -1.303043564880377 0.9869738395209325
3085 -0.5361307967389071 -1.3835880545452433 0.7247403778884347
2652 0.5805001010281067 1.4964536402404849 -1.4714560113051272
2691 -0.41715289810733225 1.3361825602539963 -0.16394099415375457
3050 1.0754527412771568 0.06126067423515387 1.0336975124429322
3089 1.5791234460744334 -0.8901546607213922 -1.035119260554698
2656 0.1687197883445416 -1.1631297709720414 0.9769226018255985
2695 1.296601503939784 1.2159874686268608 -2.0013276838458935
3054 -0.43742513748011397 -0.014522958561501527 0.34874675895988205
3093 0.4564736444356125 -0.13120277817720818 -0.882509667982203
2660 -1.8824377604740146 0.2690372488653384 0.2080547360908644
2699 0.14587752871160106 0.18955834187908108 -0.11186455454163358
3058 0.6441183146490278 0.7226964495801114 1.2895653575716823
3097 1.2207918320134838 -0.41560929526340473 -0.8639438408044314
2664 0.25483948469113726 -1.8962267457786894 -1.831060064615152
3101 -0.16521008336893642 -0.6550408141201922 0.832651942893874
2668 -0.1982014241405651 0.09589960552822036 -1.4823893278586562
2703 -0.8476190628586721 0.4807065003464013 -0.031080778131868797
3062 0.5880313256737605 0.41058873392611644 -0.5661941489858201
3105 0.45556047189222937 0.2240892419098554 0.1124897055656939
2672 0.6703305312118504 1.194383499314658 1.5244376754749194
2707 0.32397746318124354 0.7760597826717857 0.11190080189672008
3066 -0.42331979359984356 0.8158561904176659 0.9010040714251506
3109 0.8536001604241676 0.021512219041203203 -0.5479665649746084
2676 -0.9668830550641108 0.4258623804827869 -0.5733739483437521
2711 -0.5356021315601246 1.0308011283805225 0.43783767314484967
3070 -0.5294448022301961 0.5256341258355658 0.9621389101412351
3113 -1.704208495956592 0.07427054134293623 0.21114550647244754
2680 -0.6391029568277635 -0.49391016526646636 -0.7925137044364708
2715 -1.3853979705240822 -1.0772286599035752 0.07326843622493186
3074 -1.2427782831594378 -0.42049109396122275 -0.05524484865870976
3117 -0.0433633096298505 0.565740588171963 0.8368719284844215
2719 -1.1608998561715058 0.6140127990357567 -0.07743616351174172
3078 -0.5276627015038223 0.2729474542736838 -0.45566124183564655
2684 1.0016015968637857 0.592982867838874 -0.7431552527807146
2723 -0.4717759334157187 0.9102638462890759 -1.8551106300096531
3082 0.07285512492266001 -0.5106275290735007 -0.8320784608171615
3121 0.23037700855632104 -0.8364357871024175 0.7187170753597476
2688 0.20395806459250737 0.2617189447391706 0.19164647656295
2727 0.4607916103605201 0.2515869890330242 -0.7892042394197786
3086 1.7249030205928912 -0.16718423680882843 -0.1094892876164079
3125 -0.032960001487790054 0.10364544884471165 0.5464048244666854
2692 0.30564670119420156 -1.0329631637298584 1.0034448494506238
2731 -0.665766272484579 0.2163636149745271 -0.9566546290078952
3090 0.0852470408824371 0.3298637917073416 0.4514670405616718
3129 -0.21660865940292884 0.2097446029596112 0.34181571022123397
2696 0.3562195277983967 -1.6498724248018737 1.0197073533252379
2735 -0.34603375239116063 1.4309888610980548 0.9089452798664389
3094 -0.23625462458222143 0.5764401585704051 -0.1934862773904399
3133 0.285882675824321 0.5280286298113571 0.10044505041889333
2700 0.04607152124568752 0.031423760090700414 -0.019753999280229168
2739 -1.537354834757837 0.22677871517248124 1.1774732936589123
3098 -1.5753010420321394 1.1213172888432488 0.2095215806597321
3137 -0.27408213149756744 0.2788548368361389 0.4525181127504431
2704 -0.16740045155177205 -0.6439809551876079 -1.025002163972737
3141 0.0303906550973658 -1.1227101406588138 1.4284825984639975
2708 -0.7007456137400507 1.309438131512555 -1.9189402918023408
2743 0.8699581100419395 0.5676196426328708 0.16158119841321206
3102 0.09269529397954217 0.05588071897786474 -1.5351792926164938
3145 -0.7079349495146906 0.5725618796429167 -0.22225512171853956
2712 1.4484310916087644 -0.2570686016310874 -0.8018926070303161
2747 -0.02401094323748939 0.5887823321419894 1.3796332108884897
3106 -0.2172578833641199 0.5747049055742763 1.0063094567646624
3149 0.14459235890682337 -1.1520118595777789 0.9431366098984211
2716 0.01791097708771915 0.6942891455193089 1.659190543945767
2751 -0.7648152010375164 -0.4738756834911441 -0.6220642199447002
3110 -0.1422736473096301 -0.5065894527703185 -1.0712475086868511
3153 -1.7305909809917344 -0.9014480117778967 -0.6376960184943574
2720 1.9123760879102951 -0.2990418182088918 -1.6374467041765481
2755 0.09428448308869661 -1.3804748901111716 -0.1225065416366941
3114 -0.3215258763480882 -0.345109963336537 0.6790824502939319
3157 0.6676832128079483 1.1569784082208883 0.9810207698451887
2759 -0.5542417356089524 -0.0844693108813444 -0.3346122607517983
3118 0.41543599082194843 -0.04073719019474671 0.22104498008995274
2724 -0.10914570987042393 1.2296111535268075 0.1761259031335408
2763 0.3926637494984078 1.1013694409830395 -0.31606321410750465
3122 -0.9120691055116608 0.4486100315224667 0.8219618618513984
3161 0.07829973749287926 -0.9776564254948322 -1.03220550579246
2728 -0.18697493484416902 -0.6487012264585685 -0.34934281235971504
2767 1.11838064981758 0.47378168861767167 -0.023255667779919883
3126 -0.18198115867044304 -0.17636345076380938 0.8109382381751696
3165 -0.3648141497604728 -0.6009398273034532 -1.351030741585309
2732 -1.5406229786354027 0.14989361820873903 0.5635945557617349
2771 0.8239819953598383 0.5753101149265241 -1.3669770268580101
3130 0.8260761023570239 -0.16392023250609966 0.910946091971595
3169 0.00933528230874324 -1.9999306173119202 1.3683907906007815
2736 1.6899700892285303 0.7288506633764756 0.2926447860527562
2775 1.118553284373419 -0.36917616090144945 -0.5546868710822414
3134 1.7582774549734816 0.5497290014423721 0.3889257409654956
3173 0.26349677356309315 0.0686018217414314 0.422232084829723
2740 -0.776558868110858 -1.6588392119357263 0.27562059490865093
2779 2.024673141918939 1.1721805447991045 -0.49955918316914905
3138 -1.590568055669551 0.8479782753953401 -0.6124975179404419
3177 -0.9022209533162846 -1.0143080654455452 -0.32211905098098886
2744 0.38368978566098544 -0.5792274028393196 0.43086636538348344
3181 0.08161295108209055 0.2449593429927949 0.8194377267572404
2748 -0.872900334753384 0.5977317415998913 0.21440927422701855
2783 -0.30441414243480647 0.7957984281857379 -0.986907186100101
3142 0.6000917464000763 -0.46277532260041426 -0.5002009253589147
3185 0.12896782789285977 -0.29152511097693545 -0.040837907312273644
2752 -1.053410836714021 -0.633193732674514 -1.1692445290675644
2787 1.026702218494435 -0.5729932101536336 1.4495066553680394
3146 -0.9606062211303197 0.6444874082517797 0.5422885387933847
3189 0.5991252818033469 -1.502291669620473 0.7404166459607984
2756 0.5668929230491083 -0.471261310947748 -0.371745257469934
2791 -1.293283377483454 -0.7611689999877724 -0.1599411233835046
3150 -1.6484862466238797 0.8446118496647537 1.7550603314166922
3193 0.3655267078618159 -0.7294981771747712 -0.4649443310432744
2760 0.3672917421145342 -0.36589739677913286 2.5609890474072485
2795 -0.9609373487652655 2.4529063112003597 -0.9155666766657836
3154 0.18160909803998385 -0.6071211486532242 0.7006455243044545
3197 -1.0495847240481715 -1.4122577786748973 0.2782229127175077
2799 0.10502458151852122 -0.0368876236501497 -1.6117219049036104
3158 -1.4038465777328908 1.5389721440888453 -0.5691126646784457
2764 0.6312394851136712 -0.7384168770149175 0.6863170498644966
3162 0.46686136082445995 1.2883301022786529 0.21486344430537882
2768 -0.12250328313149048 -1.312383430266048 0.7203375014153356
3166 -0.13652976996267374 -0.6429133618947411 0.5100436926255036
2772 -0.10026796198279553 0.3475889420112695 0.7272589167919739
3170 0.6151222875490148 -0.06091917156497345 1.2696636423931262
2776 0.8669129563320291 0.8293913367562037 -0.3190206523583413
3174 0.2518292254632418 0.16369978096879562 1.4330229270861037
2780 -0.022329914142780856 1.042345679546416 0.6785553395135782
3178 -0.7112294213663073 -0.17959285780556847 -0.8480298754389947
2784 -0.6565364923643638 0.25977049614878606 -0.4427867367889805
2788 -0.32542101450200356 1.051353544058496 -0.040714715607386154
3182 -0.8629601002873132 0.46722772584111727 -0.2540946058238297
2792 0.6518597932591018 -0.2417935378283928 0.07441410581899524
3186 0.47201068758484094 0.8091888091291809 -0.0659171562229011
2796 0.20889244727429113 -1.6561904653329569 -0.582677643255768
3190 0.9116453375843454 1.0992777445351039 -2.2378942472742787
2800 0.3369209385842837 0.04201361581871128 1.2892963630164502
3194 0.2849223093540771 -0.8299769231523579 -0.35705477519063705
3198 0.6490665781477861 1.0059659071430775 2.3278665890823
2803 -0.7385472173880362 0.4530094536643605 0.3763631354764333
2804 -0.1189744700465078 0.2659230908416921 -0.27183962328220673
3201 0.6015274171349964 0.25102203795917727 -0.466080133706756
3202 0.8087760942173982 1.142898115210817 -1.2387868976957712
2807 -0.12394517461805564 0.5341155292511999 -0.6027813527826136
2808 -1.086991891657128 1.7802654828974949 0.7327591536666822
3205 -0.22578263976309235 -0.7745999272077337 -0.10233020155957714
3206 -0.7498239689004377 1.3005050982552675 -0.20910922467046789
2811 0.2470679150695633 0.3410401847762221 0.29232748200626685
2812 1.788030915774377 -0.5218223828849695 -0.00550822931861137
3209 -0.1441558982788045 0.7259568737102936 0.8575488331634484
3210 1.6615048640505463 0.007795953895761161 -0.7161855384686187
2815 -0.1218715425465863 0.1219911798632416 0.22150577531072602
2816 -1.2645966636176544 0.059455899413026043 0.07651804636457696
3213 0.46353067195966796 0.21121575001036025 0.2860140090202876
3214 0.2572817768405254 -0.17931791840122385 -0.32241211001978876
2819 0.48572219970562824 0.5746567042985967 1.1366547880427904
2820 -0.4762949168838601 -0.03450277024246832 0.985967969145791
3217 0.09597477091125817 -0.4155968658303932 0.2349279816442242
3218 0.504786734024878 -0.9441711518294738 2.2253943226878574
2824 0.24204008660838763 0.583755337760044 -1.0090199942673144
3221 0.42491735302794764 -0.4888996516738756 1.6542321021907187
2823 0.0750133494180618 -1.0886920819190862 0.45254613956275114
2828 0.8760912215223469 -0.43884227698570866 0.3758786455422219
3222 0.3630319137395799 0.962095118779491 -0.3079570313975145
3225 0.5510363208679132 -1.2742530413355155 -0.5524417938598272
2827 1.5083209692481638 -0.26519397557897056 -0.9686491125547778
2832 -0.21679535876827363 -0.8986486837141585 0.5609788166283961
3226 0.20687832708491627 -0.5843051150914154 0.38797782640401623
3229 -1.2289503272346618 0.47954045108439 1.1894326827089086
2831 0.639616955871364 -0.36510893261730937 -1.423020017371269
2836 0.8223083176285796 -0.13236190385180285 -0.21258193807493206
3230 0.08260594208321595 0.8102008178411044 -0.7971295021669329
3233 0.8753320547723624 0.5125385706740688 -1.6006260934884817
2835 -0.09377567500451824 -1.2779087699451284 -0.4671525948099258
2840 0.6783437438182645 -0.3392202651415847 -2.2123994948832473
3234 -0.06095420162351106 -0.46687194750876326 0.21878365830727414
3237 -0.7997195784059603 0.05410163741468936 -0.4132191302113017
2839 -0.12009018503779928 0.8963838377631982 1.3618320954336156
3238 -1.581406728822006 -0.9666246284829486 0.3319850204450338
2843 0.31402245651280186 -1.181949105035152 -0.5083208129714392
2844 -0.4738579441356554 0.2129416648591628 -0.6820669962283417
3241 0.04353272207997683 -0.5777274592999144 0.40303527531016936
3242 -0.3119701541759015 -1.6570245291749035 -0.6009439845324579
2847 -0.49056154181373257 1.546221151258311 0.10954311778805825
2848 -0.23544433546541185 -0.7274899847212168 2.0385727431453105
3245 -0.5804654820881062 0.8512628706309578 0.2723666161186835
3246 -0.07114907376931374 -0.14923419782813574 -0.09665796056618317
2851 0.16911615644664307 0.11235020981499663 0.15032203645478345
2852 -1.2170634634445803 1.9364315008514559 -0.012419785282468591
3249 0.054860912011420876 -0.8889315034652086 -1.0143551701763778
3250 0.8401601974253629 -0.16226506846113864 0.20044697195072667
2855 -0.7703510212222427 -0.2773993478765201 -0.5838689812240662
2856 0.26130136819575017 0.642445327139595 0.3878008168847623
3253 -0.3778147570378697 0.15674279717396344 -0.11985659685595704
3254 -0.5596879126431831 0.9823655002180437 0.5338031939251932
2859 0.21048837820729951 -0.8733052492194531 -0.9307644802993423
2860 -0.9676787124499173 -0.16977902198184097 -0.6808692831259002
3257 1.3126325025250958 -0.4415781493528216 0.13125555473977246
3258 -0.1955103890662851 -0.6754939829839359 0.47071608957476146
2864 -1.3480631818687079 -0.2756162580572033 0.5532963890597956
3261 0.023585502714853247 -1.2733442829362513 -0.9381844753443548
2863 0.8410577136845556 0.3460016921306502 -0.5088672645523804
2868 0.8147814261816944 -0.8566083590536573 -0.6809116819816874
3262 -0.36899341862071827 -0.3342388218285509 0.3890484946696197
3265 1.674328347886054 0.8708964316345886 0.44825560044242035
2867 0.19628301951193533 0.024551243929597677 1.5979804060349572
2872 -1.621860319281392 0.25042387065167926 -0.30409918353195664
3266 0.05314231333099126 0.5110944580431805 -0.5390716136506162
3269 0.7883072589238542 1.5155704088792978 -1.5103160832253966
2871 -0.7096528854436742 0.42137001805568824 -0.1983885690184605
2876 0.020655527834056428 0.5512060808316561 -0.234804541477616
3270 0.9177720191203421 -0.4428824105641307 0.12369866186382236
3273 -0.2701915725099182 0.32386476542589526 -0.32052541897153475
2875 -0.8527416683972817 -0.06404228283911098 0.8724112061021091
2880 -0.5965837626758695 -0.7580974808783489 -1.4231183695293192
3274 0.3230884876816913 0.14630794533351954 0.5931454978211478
3277 -2.0087282563521436 -1.4249211037428824 -0.08439900313315779
2879 -0.5158093431090629 0.017840854746517983 0.12561939843213168
3278 1.3043243827573632 0.5559071126740661 0.015137433232718767
2883 -0.22624569818336637 -0.9036677088365166 -1.1246169529386585
2884 -0.07382115087942209 -0.40340042193624015 -0.16731523966181697
3281 -1.441072808612361 -0.054730747781914446 -0.26186426521416817
3282 -0.9269736258311315 1.4523848234334715 0.011743820713172197
2887 -0.43096696657179 -0.8390698726358677 0.146896561414526
2888 -0.49265396113197296 -0.06093287138638029 0.1559919092684654
3285 0.4006706348471959 0.024890218894497704 0.009286148477144079
3286 0.9757649873643689 -0.09058670919989653 0.4425961638977344
2891 -0.8975699704954679 0.9239987716911235 -0.9406051285830896
2892 0.10741112366394673 -0.6788505215642198 -1.7071918398605472
3289 0.5961602219986879 0.9612900327293336 -1.930252583991445
3290 1.302989634572151 0.33567001169483357 -0.19026973424099933
2895 -0.9915868001898668 -1.220517190241426 -1.696118882927572
2896 0.7183042974465393 -0.5296973140488042 0.2243347951451546
3293 -0.6720850720538968 -0.6817122410589183 -0.04502652819287437
3294 -1.0954841051169877 -1.2943019309868546 0.5228515244427179
2899 -0.4829839212913681 -1.2712044012819557 0.45684185403916333
2900 1.081088537071056 -0.9078980586079126 -0.49546278138964284
3297 -0.6127774405254754 0.6315788725627324 -0.4809552148619373
3298 -0.6541207268117086 1.0998554470974804 -1.4045323029993182
2904 -0.43818940819283675 -1.14905536570026 -0.7730517755214618
3301 0.8512992332148597 -0.9628708971364129 0.07161076460191572
2903 -1.0613166057842331 0.06981242312715014 -0.7976967875106664
2908 -0.17578406261032226 0.3738439634801591 1.185411507237135
3302 -0.0034174936980239934 0.18481445345189212 -1.464706805522676
3305 0.3500313743595778 0.1220549279516128 1.0202770080338162
2907 -2.0580480176825917 0.3365724033577477 0.09160716405082851
2912 1.3492566785518048 0.9469017023733189 -0.710509340885406
3306 -0.871852076913278 -0.25525341985762584 -0.9995993639896678
3309 -0.38457796061353744 0.05529259039359102 0.7022098674179018
2911 -0.3111958437378176 -0.553006783029164 0.31346909571971704
2916 -0.9858357011431783 -0.15824882777462002 -0.33615670437593664
3310 0.5117268597060457 -0.8188365260437075 0.8450744744311546
3313 -0.9108051758873806 0.5584149769220729 1.0047860912367934
2915 0.1554546938580153 0.15833203142476165 0.6230766336223182
2920 -1.4985647294172717 -1.0159422383942827 0.47201186702144926
3314 0.9908806307156452 -0.1812592817533465 0.45810861778993445
3317 0.08779471310351449 -0.1761050380835387 2.6515405520970248
2919 -0.43160843099013385 -0.274161206272715 -0.3859571571209536
3318 1.309329243025266 1.734020691372623 0.9620013469226257
2923 -0.41896619195565926 -1.4462566414496212 -0.5444741661598873
2924 0.09402063678132212 -0.28474743281289966 0.4863674598404706
3321 -1.1685978284491871 0.022659602263039137 1.507694900004295
3322 -0.9190655421665416 1.5782734974803199 0.310921991318485
2927 -0.09106150943360658 0.1527025068499067 -0.8433571400508524
2928 -0.043099932279706724 -0.8013769919315583 -0.0836001087252406
3325 -1.23931335259818 0.5145215994678392 -0.8502919727022329
3326 0.307385565415744 0.5329896773493834 -1.7582703001860964
2931 -1.2814102620998409 -0.2915253568924137 -0.05070435401985537
2932 0.6403695685582791 1.1659807634637076 0.3145081326626794
3329 0.5394341551433958 0.5880635146875803 0.5528848546042359
3330 1.3992897589936137 -1.370061746763915 -0.5121071065144566
2935 -0.618034944195624 0.02508953693659452 0.110153222320816
2936 -0.009312150385545472 1.6346886335514694 0.360396121531179
3333 -0.96013694337792 0.552290067239269 0.1990770430972632
3334 -0.9051456017352718 1.8025831287642198 -1.574031977466118
2939 0.7779867664270579 0.8728450425359001 -0.7760395827196516
2940 0.5128730329680726 0.2900785494540453 -0.09243804102556392
3337 -0.5008879239414403 0.7578821287450549 0.4856920419713564
3338 -0.21981820065331378 -0.7630726344649748 -1.110654043625365
2944 -0.7090039172220765 0.46320704404323154 -1.1729761964140115
3341 -0.11613491516710035 1.0463152727640679 -1.1725819313964265
2943 0.2973221346758791 0.4071796289020056 0.3119431624074078
2948 -0.39767565411373174 -1.2329970915189488 -0.5447818270119943
3342 0.1529309934957825 1.5808885834211979 0.5431857531282606
3345 -0.28631016255168756 0.28718754827036436 0.48773097462207016
2947 -0.32663315356674233 0.29583294116423386 0.9934899205344281
2952 -1.2010556876438778 -0.17904439826956642 1.3449224639492834
3346 -1.0765092754025953 -0.4513028203844618 2.0770754634861586
3349 -0.7132566148632983 -0.5396336367778094 -0.33615795599223625
2951 -0.48328159191406983 -0.26772684633301297 0.2597082906414862
2956 -2.779751630399476 0.6843552275125314 1.5445677932707993
3350 0.4633110214041159 1.0074269592973666 -0.43578518616942674
3353 -0.0891010272898985 0.7856639446613385 -0.6839918838549012
2955 -0.5191000065952334 -0.3468372215522824 0.7772154692593816
2960 -0.8091983682298447 0.6538828790523111 1.299378971876962
3354 0.6615519987543133 -1.167553419652281 0.7598069727334487
3357 -0.16927237392079844 -0.888809774495199 0.15630250944144122
2959 0.4064702810905026 -0.2731136087662991 -0.6489421046769573
3358 -0.10502007141855547 -0.12151897716937662 -0.4427495183754764
2963 -0.7108607842271533 0.3570349791515095 -0.7193241492917893
2964 -0.243982791753977 0.7003167988718545 0.8444913237990191
3361 1.0278495732422335 0.6374890314895588 -1.0040151980914997
3362 0.19190152670418179 -0.3735342081968085 -0.18021122438778026
2967 0.2981775524781162 0.523954057498913 -0.7007138730398704
2968 -1.168956360426765 1.6445832083446046 -0.8072103354209093
3365 -0.03328965222703481 -0.14536471189170272 0.24962557242223904
3366 -0.05617155076260221 -1.2469794104820988 0.45853058126086865
2971 1.1254811971058973 1.0691524451352734 0.759653888321207
2972 -0.3335710618170927 1.0431726573922548 -0.15828062725956307
3369 0.19207489701000086 -0.054896141420227425 0.6835640057340915
3370 1.1179803527397933 -1.0506192660022238 1.0277405049115254
2975 -0.03434309596996439 -0.3810883404242426 -1.0800976327731824
2976 0.42743295684954347 -1.0823774734731197 -0.08888834682780976
3373 -0.3022243487750602 -0.225542322749241 -0.9769144541993408
3374 1.2799462889794981 -0.612263104180852 -0.36093454973430317
2979 0.0693570055757027 -0.4435177141288546 1.1221634044693127
2980 -0.5436489466082879 -0.549013302247027 -1.1902396647211284
3377 0.5580526321461577 -0.3019535486932511 0.2563804278206258
3378 -1.765338079460106 -0.1557407959964365 0.6081994389732458
2984 1.0739411540280281 0.30246636561381723 0.8341642738529911
3381 1.0345789609732114 0.046049267744026255 -1.8645476060992259
2983 1.8079951535000753 -0.9074826529503197 -2.3805198716652454
2988 0.1679803643385117 -0.1249912567678478 -0.9201260686773707
3382 -0.21437577715381056 -0.30977032601386056 1.0311392299774207
3385 0.7671268568730433 1.1514355645425987 0.6608970763922246
2987 -0.9981082821988361 0.5312173995966883 0.5848400590532719
2992 0.10011953456025816 0.02708111483797073 -0.6928873092811488
3386 0.23109319333327902 0.6294122834455839 0.6580202154236219
3389 -0.8833366279256191 -0.49392700819710417 -0.3237151699918737
2991 -0.04934124537049831 -1.9050852125558928 -1.0243458544429336
2996 0.3058565392683089 -0.3671557135811838 0.41288203095421766
3390 0.4272715517948635 0.9223995202868838 1.1801705510624212
3393 0.5663482107662137 0.5460735743960046 -1.3164758246942723
2995 0.4990406921292436 0.4132432609434963 -0.014924669510363746
3000 -0.6739660741547563 -0.517058008702484 0.027596181786786245
3394 0.06792188704331446 -0.19628010018219905 1.849276993547057
3397 1.740807769863344 0.12747612704977557 -0.29308954424850975
2999 -0.43183776197414614 -0.9138658565229286 -0.02815125193778422
3398 0.7110115537723994 0.422387786420357 -0.9187219979524978
3003 -0.6783185939650072 1.0176437712954993 0.801600394575349
3401 -0.751929770765207 -1.164510151548149 -1.2348454921596925
3007 0.8436907562652592 0.15942952766306173 -0.030010345362891863
3405 -0.0009141485048648739 1.4320549774082247 -0.3281686526838032
3011 -1.8696865982041693 -1.4859993988934703 -0.13557956904641755
3409 -1.90125597600737 -0.6722846416975369 0.32924324498303814
3015 0.6704772745176202 -0.5626244495417558 -0.43143354146037555
3413 1.0465615565320352 -0.18170481631663646 0.7272210154007615
3019 -0.42564279547163514 -0.8297232393430364 -0.1694492537758461
3417 -0.9790800701802582 -0.6930616314275826 1.1017946781547039
3421 -0.9422006140197781 -0.5842798344956652 0.8028590583886108
3023 -0.1525040910763455 0.8938974822090656 -0.2705650682493909
3425 0.9067011502722716 0.41975695869075874 -0.04811955433602676
3027 -0.252502048562351 1.002029713742667 -1.0014159800196702
3429 -0.7758881837180556 -1.279242637031691 -1.5022379854337857
3031 1.536600676023607 -1.320886827867514 -0.6956688887687358
3433 0.17011885456141676 0.34050033357709636 -0.757449485826121
3035 -0.19441304400424342 0.5639050196031914 0.3940150049335878
3437 0.7796735728660547 -0.6979489987491856 0.6312108658682317
3039 -0.694468061950605 -1.3186951305945456 0.08114568393342093
3004 -0.33191890539836516 -0.30338803026698974 0.4842330555097821
3043 -2.1680131208237063 1.0190164383169655 -0.15681934478352555
3402 -0.8761736385720296 1.8973519768820621 -1.2009764731432129
3441 0.15054428530482877 1.0336193658834012 0.6384359939337149
3008 -0.47708307166621955 -1.4044274823315068 0.5084799364935813
3047 -0.528312819266431 0.04099736794983571 0.5252215216765214
3406 1.0454228880768008 -0.20456579529427096 -0.8959384288084523
3445 -1.5883862224141037 0.4280227096460355 -0.5707266141519333
3012 -1.3006693828526585 0.4452779550585997 1.6515923800206034
3051 0.3244765705088111 -0.2881801393637786 0.31200411409936113
3410 1.6478299890261665 0.8464079218894253 -0.7519943856263029
3449 1.207259518212764 0.14357089264106995 1.0963938945376763
3016 0.5809035408668429 0.3824554217639727 0.3674875199113947
3055 -0.21034497525199933 -0.43447298025184045 -1.1544717527038206
3414 -0.7361636176336073 -0.5702631914902344 -0.05458168547672956
3453 0.4393014513202629 -0.7768376569642487 -0.27248906798004974
3020 0.6061109692267905 0.8168293241910639 -0.6350501748406155
3059 -0.10268799212877204 -1.2390081896872658 -1.5932833541790825
3418 0.9866114405753469 -0.5022925782477121 -0.5068852482800541
3457 0.5704231203133453 1.083760033360667 -0.4920513656182787
3024 0.4362585799876488 -0.6744766647190034 -0.36141213417422835
3461 0.4995570888188283 -0.4261773098324502 -0.0036930345755424795
3028 0.10600271267302834 -0.6558981822430113 1.5236749685030513
3063 1.1338373943518505 -1.5661399671679617 -0.3844974018179349
3422 0.2905666314561622 -0.14697357613729323 0.11883069383056888
3465 0.7219828156681701 -0.1056826968556179 0.49400450936785234
3032 -1.5597232936790515 0.5705513813246907 0.33938753004257416
3067 -1.212923162812846 -0.25139900310676755 0.847159093324878
3426 -0.7537673583890148 1.7894435223786458 -0.7904113813697473
3469 -0.03828860001659225 -0.19709127549505093 0.08355830628287447
3036 -0.5242445704361798 0.3100003996933886 -0.573887299276777
3071 0.08108627448185968 0.7313301201990636 1.4090974543760832
3430 1.1233788822568591 0.8568031930128136 -0.39154619839601035
3473 -1.106871794110678 0.31891853780372614 -1.2294468733032553
3040 -0.27650134494332357 0.007423243978195441 1.4366845694374184
3075 0.5231865668235004 0.7217740365724099 -0.5866124047748433
3434 0.37886299589785677 0.46222863683210635 0.8675816845793652
3477 -0.12956976507034812 1.5912251089121534 0.03984579667108756
3079 -0.6899884707142955 -0.08356055707175578 1.1074072121047225
3438 -0.4326078174322279 1.3678553289871345 -0.5416336418331045
3044 0.0780428157208034 0.5536435914584446 -1.2735100285617253
3083 -0.30743749380285346 0.7792697528642996 -0.02197703184624438
3442 0.27360055590405835 0.5659130644351514 -0.14030606133378637
3481 0.053440996892062546 -0.5410936024709014 -0.05144872103130996
3048 -1.0716607208633517 -0.2962097944428314 0.5130313467045094
3087 -1.1124699086781134 0.7052783125343752 -0.9923158821349466
3446 1.2470099483096346 -0.8161295675509489 0.5331434404891293
3485 0.4629350113752848 -0.9141403487824916 1.0734630616033087
3052 0.6222196810282821 -0.2102022752107799 1.0042365367484853
3091 -1.884075452256629 -0.575931733710263 0.04412219827975103
3450 -1.03240822661403 -0.2907278109618693 -0.08449913221115235
3489 0.5252773832650752 0.25396679895381863 -0.124551043709487
3056 -0.3386391261680157 -0.6662168297423468 0.41595213648451584
3095 -1.0445188692773633 -0.3455171775566174 -0.7256419794424578
3454 0.08372901742084088 -1.275670095222171 0.33160594902289037
3493 -0.49087683789915443 -0.42888598591727883 -0.564645828539583
3060 -0.38173613174349447 -0.04312922069872755 0.7029455722811447
3099 -0.17365472238822546 1.2743221610435385 -0.9348484019702363
3458 -0.9377503849923331 -0.216974392417941 0.17336869087100037
3497 -1.0564719847703405 -0.05467143700152493 0.014755348473089042
3064 -0.6110147130677497 -0.9789953603447337 -0.9812011406715684
3501 -1.225543942688394 -0.6008676494269924 0.008001489826758579
3068 -0.26963980889793726 0.11711205499783858 -0.7494140057796833
3103 -0.05347076157838031 0.20460057641133844 -0.6487602925643988
3462 0.24998880375660204 -1.025956128462489 -0.5255527905959895
3505 1.1952941291965988 0.4777414614481783 0.3805534004199442
3072 0.26938705006256686 -0.6376880396849839 0.19563536640200885
3107 -0.7680022722907819 0.2872092262881022 -0.4151878642684018
3466 1.4858798982348784 -0.7146065185243192 0.14653796895276186
3509 -0.5212226049494928 -1.5776075826953937 0.17978795988228938
3076 1.0953093099382671 0.6441767381421991 0.6738930678830607
3111 -0.1368776532174262 0.6534612162745579 0.23923603455465436
3470 1.234265592953827 0.6909514871893665 -1.1610438964697136
3513 0.08296036980479855 -0.26958142355399484 -0.9782014117729465
3080 -0.046943759178351044 1.1383573436911694 0.5759085257512219
3115 0.12096064599947712 0.37915410301965774 -0.9489212272239278
3474 -0.8168151800840903 -0.08212388415109334 0.19732361680444055
3517 -0.5117490991438686 -1.2074281603675512 1.2130790187154101
3119 -0.646973202598166 -0.5469062793646329 0.5375258354745514
3478 -2.1079054246834112 -1.293891864834934 0.004516739754835637
3084 0.35551742640034245 -0.6863070552498375 2.4692384104977325
3123 -0.07222489159188067 0.09851103773985939 -0.0037699597175825106
3482 -0.9047630823085377 0.7000045872264692 -0.5895319817429293
3521 0.22838990275410648 0.6601757230898895 0.042036008140039736
3088 -0.6121211063389541 0.34535166524184774 0.7167315471331408
3127 1.6859404897621628 -0.5577398498104866 0.03919254684088601
3486 -0.4567918407174483 0.02465889062486691 -0.05273851699106364
3525 0.6655586439790264 -1.4083989020880214 -0.33531387962693654
3092 -0.5717819105182302 0.44130236817511337 -0.25028248789442137
3131 -1.0758122578082856 1.013233631941585 0.47846864010409507
3490 1.9546366678080302 0.4077719713771864 -0.13211660218886406
3529 0.18557469086286166 1.4809507520330842 -0.34795261926489024
3096 0.17476558308896392 0.517423691416519 -0.2754801472945302
3135 0.8527378117257884 -0.10829749177261813 0.08207743841193507
3494 -1.639022257647471 0.5926494612807792 -0.9241130489377182
3533 -1.0670144655093194 -0.8782026766949851 0.6103264258921125
3100 -1.7697133378232115 0.3616911731939192 -0.6187663307578177
3139 -1.853505390176939 -0.7684016876954065 0.6576275686105526
3498 -0.040936139589448625 -0.1094670067350685 -0.13865662931867112
3537 -0.2632958372742454 -0.26539331831779917 0.5338367374691243
3104 -0.3835648258705141 1.0904299049662636 -0.9236784992486406
3541 1.4997472995151906 -0.734997038280493 0.1756721141814461
3108 0.4064290253268043 1.7257745013275427 -0.8842525056875629
3143 -1.6555063178091707 0.07379625693281483 0.7392051526142988
3502 -0.267275248771668 0.2911635447252029 0.10200875388750454
3545 0.5743230763232877 -0.4273599853831411 -0.10482755284369935
3112 0.5194925580594574 1.3918802132253392 0.8422994074341817
3147 1.1850387631380734 0.09237124437886723 -0.8351823705156968
3506 0.09356391588202978 0.8600292707544633 -0.5010124709416611
3549 -1.088073926711704 0.0533378464783134 0.43399791677639576
3116 -0.07658855139604655 0.22423102948772455 -1.421580671082765
3151 0.6684074355076636 -0.6088861310896724 0.2507693124649743
3510 0.32941538946055693 0.876622331981668 -0.6662640808434601
3553 -0.500346264083894 -0.7216824732483245 0.7307603504823497
3120 0.3437724407961675 0.33022386583623403 0.28052938368624675
3155 0.6126793624364746 0.10555816457873299 -0.08444999429409426
3514 -0.2154250818817998 -0.9822453466417642 -0.9293666672792623
3557 0.2532225220281014 -0.2711311359488844 -0.7804065803285076
3159 -0.21689589345298235 0.7472140153156124 1.0925158069621839
3518 1.1636242086633644 -1.3519037493621973 -1.0785037421254884
3124 -1.9081871496274105 -0.5133476104293602 0.6450463952777044
3163 0.39483786707735663 1.0690194711644645 -0.35507886579531744
3522 0.04225304956481028 -0.09252123116852926 0.05961283583915596
3561 -0.3728957840832101 1.070621467883007 0.6860658693857826
3128 -1.10859369010349 -0.16809811045676298 -0.4497800738858515
3167 -0.24464221255323204 0.4650131399970159 0.1693630153742952
3526 -0.1352205848048406 -0.1031716998464415 0.20763247224796144
3565 -1.5467737461572013 -1.4786107195198857 0.5166557358923046
3132 0.3881198587863326 0.6061631675315441 -1.0069992910348797
3171 0.6321455563217586 -0.7361764387267505 0.04230552446234631
3530 0.7334085268250079 -0.13828111262044712 -0.5261776953289539
3569 0.3113473714352571 -0.0724266976289519 -0.6815603988874357
3136 -0.4325339547992863 0.6328939454181799 -0.3343168036334101
3175 0.32325313872872147 -0.5271927789912232 -0.48166173796222167
3534 -0.9374198603498904 0.28573459735060486 1.2965945004471304
3573 -1.1671938147137366 -0.28982900463517913 -0.5187992802595587
3140 -1.51661239723675 0.7575932516666959 2.0540104444841223
3179 0.5593823124729926 0.806319000085906 -0.14674519269776307
3538 -0.9844209966955558 0.00604644093095923 2.2388521506765127
3577 0.39841416411116126 1.4099693981245633 -0.5607257401332917
3144 1.3324362380571897 -0.8433804151203259 1.4797310881340366
3581 -0.3904167844483871 0.9514732624863239 0.4507302672835184
3148 -0.3415449032735425 0.9575660617207077 1.6979336218062393
3183 0.40256172511752214 -0.9012185640631827 0.4303803616857465
3542 0.5867672576183696 -0.5367507717083876 -0.4566232946100317
3585 0.12721811139785255 -1.8673266118554048 -0.255579171864819
3152 0.12214026661063536 0.09363920376060031 0.13403134728015415
3187 -0.2060965611692144 -0.5022150240464396 -0.3531430785068016
3546 1.0162691157247745 -1.657455450364457 0.5003012092713747
3589 -0.07457660451184961 0.4966578700116626 -0.5893972715408798
3156 0.6256934086059339 -0.31179872427169536 -0.3358680985591881
3191 0.7761631309019646 0.8106733461498542 -1.333009237385943
3550 -1.013890629313147 -1.0204609819342982 0.9079282413587517
3593 -0.29048956980792756 -0.5325085152583436 0.39101296103636324
3160 -0.27402926996962285 0.8133426023616823 -0.19667690488706718
3195 -0.8040158192261028 -0.24279346173410576 0.2824680781922537
3554 -0.7346017577880242 -1.0133501593179826 0.9972511682230588
3597 0.3305702938859677 -1.062124900334931 0.07976201123674073
3199 0.5850080844541159 -0.8165748965124512 0.845531148262852
3558 0.43981721402820345 0.917339635438617 0.06405183148178731
3164 -0.21192404114587318 -0.7739574052137843 0.3943574622843596
3562 -2.391507053990328 0.3407349453609156 -1.2543050670581997
3168 -0.848495467685441 0.49000832464493077 0.4168912533569795
3566 -1.4832163623191539 -1.3897218435649368 -0.17805805042495976
3172 -0.659081959467736 -0.28903103384557394 -0.05560846555814964
3570 0.013829002549971131 -0.5237972801821281 -0.4329598696130759
3176 0.1410370840548069 1.0690677460570805 -1.9613365311110782
3574 -1.1202019399132443 -0.27592263628623176 0.3484507424232841
3180 -0.12387280325202862 1.1941726503113745 -0.3630764111190644
3578 1.535947151920581 -0.8678842122005564 1.1069706174471028
3184 0.27219638171477123 0.5535085366790532 -0.6194531167631989
3188 1.2602437263371866 -1.4848220837272232 0.7271908133413477
3582 0.3446455016705045 0.136937589799428 0.2907152427836012
3192 1.0318948210053251 0.17541956916467366 0.7898541958524274
3586 0.12197790442475609 1.0360614593263664 -1.134561873161026
3196 0.8678038755401684 -0.13397147069740906 -0.5374328096194823
3590 0.2605147608890497 -1.0648035778028653 0.14427333740081325
3200 0.6363798382621961 0.3563211422294897 1.3102774763001594
3594 0.7877420648196456 -0.6880674429038643 -0.3801391477889952
3598 1.1686883214594241 1.2122404322678673 -0.6332740936172119
3203 -0.2970385261330397 -0.39633498333890266 -2.1915336405334536
3204 2.27454803609157 -0.5549456453748365 0.6865818491272158
3601 -0.193904797668677 1.1101209410001378 0.5800176495336418
3602 -0.2676935876019247 -0.38628664529016077 -1.492120369984457
3207 -0.4616246856827538 0.9080400441190637 0.7025017805607774
3208 0.6635107470808033 0.7185700993326603 0.000307107621793562
3605 0.5579310963266491 -0.03203997439246156 -1.0307383515447122
3606 0.4683340754208857 0.2811977116374817 -2.151586112873166
3211 -0.5669389171995056 -0.29349485077024196 -2.2957352941699067
3212 -1.5993830555044402 0.28275819925266715 0.19016080693509113
3609 -0.4687810423997556 -0.5011841304776246 0.009927489975841378
3610 0.5490991812565569 0.323633915546091 -0.8119484339225149
3215 -0.17394253884624167 -1.1059204053817093 0.5201292131699974
3216 1.106073338980216 -0.39234721975507697 -0.11176031026088137
3613 -0.1464426857217489 -0.16491719779197422 -0.7053065073013675
3614 -0.6202029638619911 -0.8867040931420851 -0.9814763758845296
3219 -0.9374510050620677 -1.5113595602750385 -0.6637115134755346
3220 -0.7131440939293036 -0.5150213393853709 -0.8917693330734494
3617 -1.1959891993439384 0.8186087158964446 -0.6442107294378506
3618 -0.8325093425351247 1.4913965146820962 0.587636066674188
3224 0.17611012683917607 0.9283556311751007 0.12137379030271771
3621 1.085106289583303 -0.6147649934274303 -1.0266861239677123
3223 -1.832843091869855 1.3723536845118844 0.23824284380029528
3228 -1.6360060917036212 1.0785526246378356 -1.2658752906793813
3622 -1.6733900757127445 0.16269030969375972 0.3216623838652096
3625 -0.20117499456670035 0.4196230109274136 -0.7121509402228541
3227 -0.4605359549253928 1.4966891031481186 0.5981860797466896
3232 0.7803290116976639 -1.024351395601112 0.5514351191242687
3626 0.017664497465480166 -0.3220881122468872 0.05428879696921903
3629 1.4023561740801251 0.013187653971175786 -0.08093073282534277
3231 -0.22295194664285367 1.5602607609038528 0.48443260482055256
3236 0.13527760861845672 0.6254301364636871 1.1135925447926844
3630 0.34426657837854735 -0.40206836024721554 0.34152644384760766
3633 -0.4053343355539077 -0.4610643645217043 0.5568940642722955
3235 0.20066403409356534 0.017493741679045608 -1.2218237379786503
3240 1.4528919193660925 -0.5570992144449333 -0.8133542938814674
3634 -1.4210480653371906 0.40312997107349935 1.6899725247940593
3637 -0.41954409337178566 -0.9373028776654527 -0.42799251021493623
3239 -0.5346010017564569 0.14722164674613722 -1.8271305960565078
3638 0.5564606405517123 -0.21647589196868036 1.5129887452472737
3243 -0.5590898437176509 0.7934810763287018 1.6208209627694374
3244 0.10969445905402989 0.46769889630649475 1.0468238869046813
3641 -1.6202180011799105 0.8597159645937962 -0.4416897254514119
3642 -0.053257433625580115 -1.6260602346726651 -0.8531065367168671
3247 0.3090431562872182 0.9053196434040559 1.1334502912428317
3248 -0.4172726030619508 -0.015187631853020314 -1.0435279679025877
3645 0.17490414557544895 0.21580858601994948 -1.0523371212385095
3646 1.069730400426641 0.17906819947136488 0.48936086259730865
3251 0.5313108433092396 1.2870981424731058 -0.6134462859611605
3252 1.2712061655738098 -0.7342343142327392 -0.42649213007648556
3649 0.6604774778363621 1.5496905639006493 0.7849984763180639
3650 -1.2015563503709106 0.31510822118277293 -0.6608529670641519
3255 -0.8961139995135295 0.3301354202088369 -0.3804350330514789
3256 1.1075239490317352 -0.2185497292582152 -1.6837096667407048
3653 0.08163588187537324 -0.15210035739673572 0.0035777463518479845
3654 0.3534211174941004 -0.47651243503285573 -1.1553891265025373
3259 0.19834952230462274 0.0482870156226385 0.48871598264498683
3260 0.6105292646135597 -0.03662000346262963 0.48213918264978894
3657 0.059909559997723474 -1.35735268644336 -0.24357656006794368
3658 0.22221614964079756 0.00440018831189095 -0.49215922554271596
3264 -0.6608192835966646 -0.6224618083613501 0.9023250355700528
3661 0.2344395183128474 -1.1739361855852173 -2.7547562182476746
3263 1.0110547687803801 -1.104974147012536 0.3080605855674957
3268 0.917542076487644 0.815970388573629 -1.9670217707942426
3662 0.6364071481673439 2.1803391832216668 0.00828185186259705
3665 0.5313598811328032 0.31264746196592236 -0.4923637135426584
3267 -0.3323135611345047 0.7074335239488778 0.9647260898699234
3272 0.024957254379004333 1.0702518908907146 0.1079275257957042
3666 -0.7140409693313673 1.205226976815425 0.5255872488321713
3669 -0.3893900388775684 0.7142455081201644 -0.47628092614777134
3271 -0.3933136760601596 -0.11143723163449598 -0.24159499150951583
3276 -1.6448216293166156 1.1290527220955155 -1.2590488645308646
3670 -0.3274068130811918 1.0470112544782693 0.3567879088319543
3673 -0.6773679560998731 0.017694416958160153 1.392395604989414
3275 -0.23066142926458907 -0.1268479431189049 0.49608960283764664
3280 -0.5128655734594029 -0.08824211827470546 2.036651616086089
3674 0.7663473455566309 -0.041991954662853305 -1.4876019477032691
3677 0.07087114263143493 -1.2526401585350506 -0.35538758869916653
3279 -0.6689881330285522 0.05479563544570907 0.4154694951495046
3678 -0.8517521661496215 -0.06836810778866131 -0.8707200886403558
3283 1.1213252909299667 -0.07579121589194111 0.18654359621887942
3284 0.16903721051424053 0.7326177382713803 0.013446873845327986
3681 -0.7130265557532577 0.25749608231885174 -1.0873241724774014
3682 0.059280364944846405 1.2148551072413554 0.8785060710585646
3287 -0.9587716663502083 0.5172843598195436 -0.012922580101912988
3288 0.21930637528765703 1.2920479094160031 -1.787215162883967
3685 -0.3842943061329162 -0.30626575153015445 -0.5329876377974084
3686 0.9456947695712593 0.19010046032134756 1.48573406784207
3291 0.09756684102502763 -0.18434140119158002 -0.5685950868600967
3292 -0.07514007019213322 0.2844301887507014 -0.8986226295037469
3689 -0.05877987472104002 -1.2779282673619934 0.5972484518283799
3690 -1.5327448567430204 0.24448248093544303 -0.5994989730547123
3295 -0.2809781384701326 -0.4133634184672214 -1.2387744883585536
3296 -0.27886412451482584 0.8818644196211235 -1.5135302908159134
3693 0.772176615197157 -0.4431640141454635 0.983147337023569
3694 1.5190124355776526 -0.5860918289084635 -0.7928348193215322
3299 -0.35785219857486716 0.4594438017283096 1.3942676687657716
3300 0.36701750265665994 0.7732732968807678 0.006056901468494587
3697 -1.225684000600834 0.3261753933623006 0.822323134985492
3698 0.6336656985059222 0.47826926000694886 -0.4284923301654794
3304 -0.28427924775500546 0.056000089126678934 -0.2746101156750748
3701 -0.0049845890571346 0.09436798742821391 0.13289101584133717
3303 -0.5745933811173042 -1.8385736204290564 -1.0182708225334614
3308 1.3001049611100204 0.44925182117059737 0.055069783390490054
3702 -0.5383656691652118 -0.3719953304044272 -0.2161655687630682
3705 -1.104191812007895 0.6570645146371004 -0.3061877785489149
3307 -0.19807774983920448 -0.4330825273517292 0.09009058742059899
3312 -0.4149206308553864 -0.288596278455311 -1.1447804227825171
3706 0.39668042841129386 0.393853758173929 0.5104932264357601
3709 1.128410607275057 0.9878781395594559 -0.04430537347658341
3311 0.7248908255621591 -0.46792049635856114 -0.24542081081369865
3316 -1.452644233019745 -0.007816560019706603 -1.001721034733719
3710 0.9571266344006643 -1.624191580235238 0.29348732232823643
3713 -0.31213717675059166 0.4387326864748588 -0.45636257495077615
3315 -1.1124789711284242 0.8055712522508078 -0.547669359289384
3320 -1.1792572842373263 -0.046044541537157604 0.28882661145185856
3714 0.05664518412652492 0.1045024088823917 -0.2254546416666584
3717 0.27576357744135915 2.2885559838571266 0.7730678538699992
3319 2.1396866003335706 0.8803473399315407 -0.1055453284635493
3718 -1.5287174961172028 1.0037617455427719 0.46891308246331626
3323 0.05022876748734634 -0.8571494830224033 -0.23898606762461677
3324 0.39690572468283564 -0.4585638490498376 0.3960666572643327
3721 -0.7865772752091379 -0.02444480289930571 0.5938153620664828
3722 -0.48846781409856926 0.4519400051806443 -1.4913373627266355
3327 0.6017662281865841 -1.2638185122527084 1.00653450709653
3328 0.5155966146558728 -0.9053119525202656 0.3694115232923087
3725 -0.15117192165699558 0.6560584404934338 -0.7116025627763154
3726 -0.9422806511134918 -0.472938695997521 0.9290088488167163
3331 0.4305464163560348 -0.45884423661128076 0.6854869952571756
3332 -0.8738610702743929 -0.39625155378087984 0.4784234670519498
3729 -0.6318865252266412 0.12136600438900767 -0.15559185684871496
3730 0.6851594330631445 0.2922991770577921 1.5351883678766851
3335 -0.45111684194784185 -0.6051284594537799 -0.9039222905278792
3336 0.5982729755458567 1.138139298495592 -0.04725022145692225
3733 1.3020590973185844 0.9833224075211647 0.29409928035028193
3734 -0.5756362046270889 -0.408162756112442 -0.14972298860966535
3339 0.6964746778669858 0.5179490062345955 1.6007480871498947
3340 0.36529384764940354 0.6874159893687934 2.041460432060547
3737 -1.7253106976356951 -0.9366173144354757 1.4891468447954772
3738 -1.0024966552750445 -1.694869213506878 -0.45983360511614496
3344 -1.2586470712970694 -0.7098215498204509 -1.0245153145481791
3741 0.14253860796426834 -0.09087219720605307 0.5241322075888335
3343 -1.1221226681618368 -1.5635967095713685 0.20096602612876632
3348 0.6037558122067074 -0.11022589627255563 -1.5842298437178797
3742 0.1147306390481389 -0.6989211060276195 -0.4423324555987705
3745 -0.6802741094318334 0.727828531271312 0.20068608655069484
3347 0.3664240041348439 -0.0025171028889816177 -1.4126328007565123
3352 0.7618911423904453 -0.07281040947232953 0.302894940954268
3746 0.5224760419463063 -1.4832907516667453 0.5592503815275494
3749 -0.37278922696839445 0.5258993315317154 1.5259303445632593
3351 1.1989842421495485 0.24533618987448447 0.19403016465843073
3356 0.3374989675215432 0.7395459149270965 -0.42904913417507506
3750 -0.31883409824210296 0.26761969609105646 -0.962425809255091
3753 0.8498470109558152 0.07679651550635051 -0.2769081491088565
3355 1.3435914605215833 -0.18297156581281082 -0.7333974321997302
3360 0.9593713970832404 1.2339171793429309 -0.6304076657640231
3754 0.8537319562360498 0.03602775382473619 0.8231006839859989
3757 -0.7861338234921172 0.8121562735079891 -0.5216453445097826
3359 0.149592015962328 -2.3786527542681797 -0.7737501800651054
3758 -1.5842695575498305 -0.038986302932829606 0.554375129383615
3363 0.7832671774149188 0.14431193670134046 -1.210868185500222
3364 0.40290550555708665 1.673180555462459 0.4782435696869212
3761 -1.0253167091423385 0.01238870792280786 1.369567673743285
3762 0.3068539833886451 0.778059163420199 0.5928346103025104
3367 0.8600042754654911 -0.3173591635855492 1.3281071293902937
3368 -1.2343364832193056 0.14595460510625985 0.03360216544341718
3765 0.3133078543365912 0.5066820026064958 1.704270579497995
3766 1.2711745874561204 0.9065784506442938 0.2018181009222465
3371 1.2276054870817938 1.2127890344307932 -0.8359987335400175
3372 -1.4124615817076946 -0.9572994651187806 1.2767087778737916
3769 -0.4603902607598008 -0.24852348200762053 -0.6940475817090304
3770 0.6906081400987958 -0.10194395323155954 0.004023192705006416
3375 -1.0908220621623725 0.25086118438019067 0.6525041314713462
3376 1.039542036298643 -0.11532688195285636 1.0286477260822504
3773 0.8773298110862999 -0.2947254372190091 0.46024422220332517
3774 -0.34261328179475853 -0.6434230761907832 0.33589876150245024
3379 1.1493617024655711 -0.08432313572107694 -0.6134241175363464
3380 0.012896289789334943 0.8513645506064789 -1.0868493304841276
3777 0.24398907764616923 0.5616297224427969 0.3394793838690926
3778 -0.8464090635163596 -0.7236568500153948 -1.046103222598416
3384 -0.33612450692283896 0.0887545714119469 -0.5379818213398099
3781 0.8586174269378627 -0.13930828370034393 -0.4394110495991531
3383 -0.7926822323052891 0.11518102948433884 -1.0970371974551878
3388 0.15802000536434332 -0.8506644589694141 -0.040920863651802974
3782 1.128991484392796 0.009784054680024148 1.0116522953456986
3785 0.3909414727664811 1.200606239151754 -0.6645942743532802
3387 -0.00611722757078355 0.1711707837468672 0.6828179207287824
3392 0.8118263278604266 -0.35866458180293037 1.037868431030884
3786 -0.4960206466731843 -0.5234905222986079 1.0434300787043636
3789 -1.9404744362853006 0.5444279769402145 -0.18466617875833385
3391 1.5266323242554187 -0.06258138219303129 0.8693884806250868
3396 -0.1921872871442732 -0.32977311968154505 1.3516812983313045
3790 -1.4407584140072804 0.16544933600360817 0.07537090509361317
3793 0.46799018868101094 0.26424193103557975 0.4377512275695231
3395 -0.31854521540581765 0.9855702842732165 -0.26266603744972045
3400 -0.6066857180168662 0.36146796348672694 -0.05746656145823252
3794 -0.4201100131273038 -1.3468249142050859 -0.4727680792403932
3797 0.7632724306593525 -0.1798301124084911 -0.5248059692336666
3399 0.6090000565493372 -0.5986017156323601 1.1318375230424698
3798 -1.048889429973406 -0.9621926025755598 -1.3281893616047973
3403 0.1777598317827394 0.5963664189359287 1.8317714078273308
3801 0.522877074794821 -0.667101997053393 -0.5150141583922393
3407 0.6377026595150435 0.07805114756165638 1.18922912434241
3805 -0.3102027599957925 0.7206696456500296 -0.31058900620700425
3411 0.24254055105536745 1.2739470752134068 0.6305397668157711
3809 -0.13738297179267442 0.5718251602866241 -0.658289084201415
3415 0.5116222817878345 -0.2066779711243564 -1.1868273584585705
3813 -0.1930086362690349 -0.3004625988851061 0.5734756254482066
3419 -0.4729555076013924 -0.623211715513391 -0.30301430867473905
3817 -0.127523712903128 -0.5153532201150394 -1.0309172080164508
3821 -0.12945589066106022 -0.9271016776725785 1.1358488616240836
3423 -0.11971958528343829 -0.24650883501202692 -1.0525345311060867
3825 0.740436074771678 0.5256971246514465 1.0540668289818826
3427 1.180584288166545 -0.19833795700966406 -0.4971024640267996
3829 0.7433429639678822 0.8960056880442924 0.916810422872721
3431 -1.0118829889570349 1.3750287587011316 -0.23407535579713515
3833 -0.12261655868612575 0.5671908486651118 1.2931026813409197
3435 -1.374637096417571 -0.12708175889114365 0.5390022121910348
3837 0.7364413304521259 -1.437958215245276 -1.051609572032715
3439 1.7859733761605798 -1.6377143919782091 -0.1777076632002045
3404 1.76682766241891 0.4262649541806431 1.4674644038968447
3443 0.207139475112867 -0.7699216829340233 0.7852976950444904
3802 -0.760460807046978 -0.3631591639692315 -0.6248772749189595
3841 -0.8925641692549868 0.0995013324682528 -1.5780193426601337
3408 0.1281490135490953 1.3690868135503518 0.5869901684810328
3447 -0.8208158726974853 0.10949841866911937 0.7171938442478166
3806 0.27958401326743654 1.6691398762566412 -0.2780427869032525
3845 0.8715491034222583 -0.6997160888298684 -0.5210459069885258
3412 -0.8204580452406385 0.14452568603273125 0.37380350028221143
3451 0.6307101389917281 -0.15298953627832113 -0.7353403865269602
3810 -0.6924831523740576 0.2626365067111481 0.44550110901443957
3849 -1.1141509594742331 -0.33596920768723754 -0.18451293832443907
3416 -0.2732439536841701 -1.1533684248552618 -1.3759985770936016
3455 -0.5676091711454838 -0.2643139419219118 0.5334397802485525
3814 0.42230384587962805 1.119431556842997 0.4152448129994949
3853 1.472551342376673 0.49674354396326037 -1.0038041789153924
3420 -1.0421287982147498 1.5696575520969664 0.8725717890943401
3459 -1.0226200136323422 -1.3005375762729265 1.943266778518755
3818 -0.08008260192528391 0.509454572398048 0.4992646312963518
3857 -0.43955297991287806 0.29897223331656264 -0.947125454080685
3424 0.4461570873062116 -0.46882097234881887 -0.49392229374707336
3861 0.7269272935529716 0.13414609362631869 -0.6338375854309084
3428 0.05446956347872091 1.0379077308011209 0.22454094406269753
3463 -0.5845911750492303 -0.9626223997940927 -0.26557758308080637
3822 0.8850919080662676 0.3186208267402128 1.7161595032135326
3865 -0.5410541536524925 0.7457019558476332 0.7373357697434586
3432 0.3044676394598071 -1.9585743265468778 0.34371914114218893
3467 0.6589847287585798 1.8662828514954268 -1.417904161794525
3826 1.776329321908093 -1.5031893382264483 0.9875925505826051
3869 0.9703238903876071 0.5024644795293566 0.6293379706354958
3436 -0.6399654186231238 0.3953156544285846 0.7544129013624127
3471 0.5243973507083055 -0.019769251082343266 -0.8070588320919201
3830 0.7252955928867534 0.8872609775481392 -0.3036377440879629
3873 -0.23801001558047072 -0.09818410037578851 -1.2540407814570087
3440 1.2580873120277605 1.3888969391793256 -0.033715078220793816
3475 -0.04097389423618743 0.8939951400548674 0.7944131502194668
3834 0.7183178338777814 -1.371508330674947 0.6581156783675063
3877 -0.7641789965214129 -0.6195873960397897 0.559234843354995
3479 0.8002567271070353 1.1157406740940896 1.2425476514799263
3838 0.3411064007413684 0.8462103111985004 -0.01993228592063609
3444 -1.1612729443044139 -2.998312767194516 0.3140892205614128
3483 -0.030091494282217825 -1.3844562488876841 -0.5067079161664516
3842 -0.27011257510283876 -0.14880117095795986 0.08374262030661216
3881 -1.7869812527105202 -0.569415986843235 -0.9597006775318764
3448 -0.8470242962228789 -0.36931233333222996 -1.4035209891062954
3487 0.05898205122699483 0.24497881796179952 1.4316301697857166
3846 0.40566275051830814 -0.06051975178053069 1.5718149082031958
3885 0.9904271009340804 0.5746751069222924 1.7346941188925964
3452 0.2408646853157168 -0.145546756137316 0.723749338009037
3491 -1.3762732042473005 0.23134653350090567 -0.31412999416036724
3850 0.865511709501074 -0.14906993901792095 2.075556011825361
3889 1.8006366873058197 0.6723467375297535 -0.2858551112797747
3456 2.8008319628482883 0.7533564233966235 -1.431875978078124
3495 -0.7286827745836018 -0.5159599695494504 -0.648676286785178
3854 0.4313703730605035 -0.4818718385455243 -0.36371721925958334
3893 0.5339049884518267 -0.30684643694934716 0.08712781004192922
3460 0.5076334253224325 -1.1679186290775443 0.3244777134138281
3499 0.7144587598437503 0.19221287000967233 -0.6395854443617617
3858 0.4485052711935507 0.05648279780542849 -0.5928576575280677
3897 -0.4689906478146987 -0.6627731316826613 1.678227822649939
3464 0.6505992453992652 0.3963343602099697 -0.05010092054502174
3901 1.2643800562560765 -0.0213526452372536 -0.6008590715936729
3468 -0.7975097505202393 0.5118403965357792 -1.2635429558176514
3503 -0.035276198087504915 -1.062784214162852 -0.7052880857236137
3862 -0.3120828351011768 1.2792540137483919 -1.3797027577260708
3905 -0.6966260659348752 0.0018646824574429857 0.5315595221848739
3472 0.6539277705047093 -0.19536170994453975 0.24612378724359066
3507 -0.12064028786566922 0.4652731188139397 0.608537846442058
3866 1.0493911187307727 0.3479718227107652 0.5960792063579808
3909 1.5063912473947674 0.679988905520811 -0.23969282882939918
3476 0.9007759527893597 1.9855653776758269 -0.8965190111526171
3511 0.05891258443859921 0.9284882905818457 1.798558632431464
3870 -0.5822756771921137 0.4679123475753464 -0.41877669254899696
3913 -0.2838951900147959 0.831144517724604 -0.3148873734845756
3480 0.47521422406970215 -0.06492807852283175 -0.413163407430535
3515 -0.7837354337445578 -0.481083030303776 1.099346673532499
3874 0.15428403078543637 0.492057021930922 0.2745026034165995
3917 0.327780820176682 -0.30547590059353785 -0.6031663392123845
3519 -0.16031100186709787 -0.5154802456966056 -0.23553745491162523
3878 0.5874277692458316 -0.49453555956673045 -0.5269783632954155
3484 0.7543659869147292 1.4796205388621693 -0.7736446568387513
3523 -0.2473329408374923 -0.5225837014405526 0.41432394106688414
3882 0.2113880514880411 -0.7102490600315446 -0.7118942832813373
3921 0.11879477174297196 -1.1413953645617925 -0.32452889109417105
3488 -0.47491238745253883 -0.2968805552834905 0.30645197928066314
3527 -2.2352566141740486 1.7866774398170229 -1.2672545526795753
3886 -0.6591209889245069 0.12532179577234406 -0.7682699021946571
3925 0.46919822890247564 1.5247744095111557 0.8755571185021482
3492 0.03786441110795095 0.42496550314771414 0.15292276245826483
3531 0.9484064561825919 0.49477868395280533 1.4381735171611925
3890 1.5885628469909543 0.4563754533239285 0.5633439777983851
3929 -0.5903357958695471 -0.022213274859479985 -1.0884841941589045
3496 0.31134661049371454 0.4740972590152491 0.6963371340788657
3535 0.5094935887502864 -1.2018087693629658 1.048314613271129
3894 -0.47373527195394594 -0.43944933501679356 1.042494404946351
3933 0.6998484570000533 -0.5258724309356603 -1.2239745296958062
3500 0.09765129081066118 0.5284831186613442 0.4317645159865129
3539 0.08649151335668387 -1.140493359606079 0.7410947035600806
3898 1.1026808177016165 1.526029122883757 0.8869872560698844
3937 0.9963692386110881 0.49869274196150637 0.6013594336188071
3504 1.4526839007290433 -0.7035756970484593 0.13369693341052402
3941 -0.12071214997322058 0.09722104596427772 0.4428714616828545
3508 -0.7967094970436601 0.37022923318808426 1.7157237730214654
3543 -0.28230986018399856 -0.2572317342811903 0.0920593841951002
3902 -1.0190365893999276 0.18156739522845855 -0.48953251858065877
3945 0.9372306811233082 -0.24675992324401355 0.14296269403250714
3512 -0.702022556101204 -1.1284589280512591 -0.38109347678364486
3547 -0.6030298910498991 -1.076721891400803 -0.1866578261563182
3906 0.3743752697159227 0.6041047531918281 1.77172247802835
3949 0.7873713160170681 1.0260312886865677 -0.0443124931381716
3516 0.5841194408601504 -1.4515322147169303 -0.043932125428221336
3551 0.35194169377496237 -0.6588889390629606 -0.2118259473188561
3910 -2.005377785538783 -0.34373818891022717 -1.129464099759474
3953 -0.3448550274279214 0.20090470981167308 0.6149662183577356
3520 -1.6028990553576687 0.4839093522871022 -1.4581514430017057
3555 0.47499728516134293 0.7560452150907602 -0.44426003739122133
3914 0.6102919106554282 -0.7891603752115333 -0.7691767783624499
3957 0.07041333772849767 -0.8097550364142607 0.9532998853477461
3559 0.013084526302946702 -0.6001237387207663 1.2328500607916828
3918 -1.1977721699871708 -0.7857163035079948 0.5561281460006782
3524 1.4623898834119191 1.4537713867457138 0.7943303884611027
3563 1.3327126500511854 -0.8003976481046927 -0.11250588385666918
3922 0.5962988479069418 -0.7755985218916598 -0.7942985520238478
3961 -0.30416100890223563 -0.5009435291234663 -1.0089568555543256
3528 -1.9108299633944492 -0.7674387761374222 -1.5540488225631566
3567 -0.26808106744852045 0.5992649747353764 0.19725286166099537
3926 0.7006006105786308 -0.8871852219500066 -0.6997179147750966
3965 1.4097128709617448 -0.12273962530404706 0.503489224417132
3532 1.0238214322513193 0.04286931607448469 0.34966441324465236
3571 -1.47974277365099 0.9161277287619461 0.8933481069814748
3930 0.9613196381750694 0.8252001901031635 1.0110032454022877
3969 0.8764627362237752 -0.1832416469681683 0.7830243694269
3536 0.27606653198253106 -0.5086514811236256 0.9971884031248631
3575 0.4296073054769311 0.13285696038798708 0.2616908840248562
3934 -0.595430773794598 -0.3331782100140386 1.0798925383954208
3973 -0.1336826417736017 -0.5601325491371009 0.9533712327940987
3540 0.5494723992125865 -0.08861212029872717 0.7602489538054363
3579 -1.1023336520222637 1.2934757736302187 -1.9969442978466891
3938 0.2971445525210101 -0.9657168670764643 0.7343465475293157
3977 -1.1480736571438934 0.15165210335217783 0.44144127065256045
3544 -0.041942464409274585 -0.8366578536946158 0.3405203844652765
3981 0.6112194100529752 -0.9517008526391361 -0.45158885774226776
3548 -0.23196127525581373 -0.05475897883689469 -0.04740523019491325
3583 -0.09185353910836352 0.3377390256797313 0.9190980766825088
3942 -0.5360353560453937 -0.2642278487234239 1.3127260166143155
3985 -0.12327236156593004 0.6341818927285843 0.4965045796276856
3552 -0.2299961060896012 -0.12673583884770248 -1.1920962929543688
3587 -0.31103845942982533 0.37300098947407134 0.24577170458475894
3946 0.8870225733626396 0.935858991868014 -0.32301477405285506
3989 -0.08609927299928707 0.9961649240921933 -0.5415539899067571
3556 -0.7498493270546798 0.0976154522005179 0.9923541994660144
3591 0.26011641413046843 -0.8145933566322738 -0.1074184255015353
3950 2.646004878408825 -2.55891678077628 -0.22865998145455743
3993 0.10771058191829741 0.7430643845815005 0.7646618511971016
3560 0.5378725352685103 -0.09588765839052127 0.40058908046823394
3595 -1.6106373853274323 -1.2268972319933649 -1.3476790723802083
3954 -1.8571087188823536 0.6539016124411754 0.7063666559124488
3997 1.3130753003344724 0.7381639787720842 -0.8570086448360142
3599 -0.33623401745878057 -0.6196229952014568 -1.078980277793557
3958 0.22312304512555017 1.1306577162366358 -0.32025524842794995
3564 -0.476893771551937 -0.4583243053769709 0.10767946690390315
3962 1.1912588009481235 0.2724313031528777 -0.7083595457271996
3568 -0.6752706701310488 -0.6589775839978849 0.7507796290516443
3966 -0.763401995107063 0.10367336688646171 -0.32417718597357226
3572 0.01726014216212822 -0.43166490822370057 0.8629549972375014
3970 0.6936448113844991 -0.2888744239458334 0.03295950552858276
3576 0.24729923103028859 -0.17412163780339499 0.33935520369057176
3974 0.07198549965570575 0.27749632075277125 -0.0775200657116958
3580 0.1048300826901495 -0.004414397488460918 -0.6971615812710553
3978 0.543156581687397 -2.5921136873672372 -0.9303145288881675
3584 -0.9431229082106428 0.9956980289968028 0.8685000683793676
3588 -0.4638998768923438 -0.3333383189100306 -0.15227173482270756
3982 0.4306896032672886 0.866786062012283 0.765150314727499
3592 0.46017005309687126 0.6037050855429169 -0.752059859743536
3986 1.1425853096478047 -0.4945284912785468 1.3551149158638234
3596 0.6204288432745688 0.8162245185896058 0.9597064478518275
3990 -0.8137681198371 0.41422970427579936 0.7168600183929268
3600 -0.9674609772672321 -0.6870758171250844 0.6845136655779833
3994 -0.9562866634996338 0.026204294320250593 -0.7204442369306663
3998 -0.1995632198836218 -0.3020834315172159 0.0911582219816743
3603 -1.0915090712344733 0.5974708466540255 0.9582113772701173
3604 0.4908252810302252 0.6288539280298168 -0.3693604729867868
3607 -0.429772811506852 -0.5509276397652004 0.15078363828484387
3608 -0.2576032132715078 0.6068221740763002 -0.16500604344555553
3611 -0.27024868295997323 0.41043931384626564 -0.3419314779037573
3612 -0.1327939316527469 0.6161983809313917 0.25703870476619245
3615 -0.8413070348149644 -0.15668668347313347 -0.1326054062874158
3616 0.9627886714163466 -0.7454442928680078 -0.05138848587946857
3619 3.081704703032 -0.40602728017622447 -1.5158098549968604
3620 -1.066025068282971 -0.9905136148404736 -1.1201014934894782
3624 1.3416063618511072 0.35963985008028054 0.16885587215577608
3623 -0.1863265544852575 0.5265649822319158 0.26628048206759286
3628 0.08866046492856947 -0.8273753485420147 -0.057775188880755654
3627 0.005499228840498641 -0.5388755135025654 -0.421348664778084
3632 0.5965362126483905 -0.6498368715351622 1.0872294932630486
3631 -0.29688653564062095 0.2971858932418823 -0.08268412672978892
3636 -1.7023401142620678 -0.4055344030712825 0.0783902870017804
3635 0.5786285548452862 0.822562605404438 1.9488776511975687
3640 -1.125684398784919 1.9785001749513473 -0.16257875573914857
3639 -0.16761531176310202 0.12393514174452397 -1.9649351105866744
3643 1.8500367848820698 1.2228763215703269 -2.166187361168824
3644 -0.06832434051315656 -0.771353979192332 0.4580469066298314
3647 -0.2743511083220143 -1.0907731654169046 0.5036334450379646
3648 -0.09167630240187695 0.4950527027279922 0.10487363662871657
3651 0.3286468713905297 -0.980712320579224 -1.2917741890674546
3652 1.392579505056029 0.20495071569843668 0.6364192685690174
3655 0.9730622800998328 1.2192813566324945 -0.8030251323857113
3656 1.3743662844498261 0.37614404385274935 1.8529130797694238
3659 1.0788819292219787 -0.8305099759728934 -0.11268325612201144
3660 -1.4953560443261937 0.4776150210834847 0.18646394794926424
3664 0.8206289412062072 -0.3958227336067946 -0.10884384690867718
3663 -0.567423351885619 0.29120745154356076 0.8916324740006351
3668 0.43159305741371073 -0.11062893403935477 -0.3297582084664181
3667 -0.25508796473129663 -0.29729513180693035 1.0794908016890081
3672 0.7285138676492277 -0.46531904097100385 -1.0910120379064159
3671 -0.42164784818433176 0.18289794833206752 -0.6385000605966411
3676 0.14798760594652968 -0.138990499217519 0.4640669982895668
3675 0.422828879564279 -0.3702351354257972 0.32517527069591357
3680 -0.11412170811607017 -0.175854527448779 -0.16659606423862197
3679 0.6155689244781328 -0.8116125185600318 0.010428255123919872
3683 -1.1679545672917717 -0.04784375423488101 -1.3457967599760645
3684 -0.9354839246087777 -0.01653256819679299 0.327370587340551
3687 0.17577093735568822 1.0013447941375808 -1.2449315132968952
3688 -0.7882000179319161 -0.13397692015670593 0.7471895334337333
3691 1.5996781261996633 1.2025360562214684 0.905695588984983
3692 1.640529254664885 -0.8062281544264718 -0.2554274885413258
3695 -0.8219122617838789 0.40336250494066517 0.5688108147987647
3696 0.12579012475670628 -0.3384542303274502 1.4859183847449915
3699 0.12556543967137213 -1.2391738961935446 0.08422363156259613
3700 -0.8430378744141989 0.31038513354980296 0.08625949332757482
3704 -0.7144777759038157 -0.03168092739269389 0.38279846388243327
3703 -0.5932980302108447 -0.5913765285168161 0.428557573879049
3708 0.1491118626052563 -0.3259274687074229 -0.9912049766734955
3707 0.7563542890586863 0.3671474743760767 -0.19477575031977643
3712 -1.4606992872856939 0.17978844299756996 0.17783612679339442
3711 0.29410356111891517 -0.2950787119386748 0.8354657530666737
3716 0.8933640384578688 -0.8366329822856882 -0.4386653669990012
3715 0.8016860802623962 -1.6107803686493265 0.4241443312368123
3720 -0.2628752756161598 0.09430176642289526 0.31877038975744665
3719 0.2836155051414723 0.9310403325439964 1.1444309801433297
3723 0.567899197474955 0.5048212661327163 -0.5323505234093296
3724 -0.35957746339684993 1.3076356373788534 1.437596130979773
3727 -0.9663109963367646 -0.06471080413332175 -0.2533420871931812
3728 0.3564239729139909 0.6068322594310785 -0.22707828749841696
3731 0.058330940042305796 -0.04105594679417251 0.3775942858799625
3732 -0.8253397051493451 1.0716355334775471 1.3181691407084648
3735 0.6975829080003085 0.2689529232972216 -0.6597765028507381
3736 0.42398322986843584 0.9019264982674706 0.06423432676888777
3739 -1.2505127224081003 0.20205831683361838 -0.27685333952464836
3740 0.5150761643862687 -0.7491703976049219 1.3666548562801817
3744 1.1251148107725055 1.1073613119096015 -0.5440030808880623
3743 0.531988573451853 0.10901175952202538 0.11845582025872818
3748 0.7664101865577798 -1.4891731670781427 1.2240444336412775
3747 -0.3260793462765417 -0.7731277163565256 1.0544005435847401
3752 0.8744999956213475 -0.5411396626970627 0.14077551371841035
3751 -1.9468845773267356 1.1873174329854255 -0.16786631462266982
3756 0.9704923482694833 0.9455895119857659 0.14829454452655288
3755 1.975341212645472 1.3413875630930674 0.12695856669557892
3760 -2.0480241957259064 0.4164017786100604 0.0623700662434224
3759 -0.1804860279158723 -1.1150116667081549 0.235274707691996
3763 0.4386410760284084 0.8044695654857715 1.3134341450270317
3764 -0.5503003381083498 0.21354458919156805 0.4580456821643766
3767 0.5215030047192653 -0.09564336402150797 0.055108803606210045
3768 0.7915595039373133 1.7592672282541455 0.6455184559344168
3771 0.41944084509768387 -0.24059768357725045 0.020550368856549223
3772 -0.42979132738957737 0.4343786222077209 -1.4226694576407648
3775 1.2293056569169496 -0.39809223002992333 -0.33972176413538474
3776 0.9771835492697929 0.12454091638255446 -1.5444439359811402
3779 -0.017964374442459335 -1.1301597747566905 -0.5826817198897583
3780 0.29340884108815407 -0.03800191986760465 0.3859966872728549
3784 0.2657055964565523 -0.8334862262884078 0.22058684553974356
3783 0.21089138239469157 -0.1513250803503533 -0.0031113632978917796
3788 -0.4441026285730434 -0.8054252496976614 -0.6239657901880323
3787 -0.5216751935564594 0.03613960743544807 -0.030915362172083103
3792 -0.3081839784399977 -0.32425737931074383 -0.6980181872320592
3791 -0.8500759941579329 0.9181100229365209 -1.1126413277373164
3796 -0.06759624773080289 -1.438978317744613 -0.6249138231650032
3795 0.991849184639042 -1.041755933112109 -0.8699375608422611
3800 0.24807543256511105 -0.1145940378222577 -1.829848796517789
3799 -0.26771765974083145 -2.2974113412827832 0.12431838972564294
3803 0.2836590271810715 -0.0640602166583729 0.4394140192985312
3807 0.09028398775927798 -0.008569234515323279 -1.0603032331125088
3811 -1.412306279748793 -1.826139681160732 0.19175276968840574
3815 0.1585633200172178 1.278365947219112 1.1499433020019387
3819 0.23238671819536028 -0.24099711884252564 -0.10387713681900065
3823 -0.6540303897987587 0.1911390929332622 0.6159929413196832
3827 0.8232550111208902 -0.07569101315633728 0.11987263134621937
3831 -0.43597332853469595 0.6381771217601971 -0.08163938425637121
3835 -0.09134107679330435 -0.34914815641083385 -0.3999543479219933
3839 1.1997339510476333 0.14803230132386713 0.7460734697735152
3804 -1.2878381490512365 -0.2996691157174214 1.1855614844146891
3843 1.1794344673677388 -0.3040309727659523 0.6178147262017946
3808 0.6244819272917287 0.0023211745361889635 -0.7054186302574266
3847 0.06415974235338422 -1.26227614946927 -0.003016874826576676
3812 -1.3872005984129063 -1.0279584769752945 0.21980482540124813
3851 -0.42734781610849126 -0.432525559176476 0.6975250232752346
3816 -0.5711698900208715 0.1054657600671811 0.5523291748674604
3855 1.042315565401397 -1.0733104622195342 0.4419317586594663
3820 -0.0019988401476585226 0.146683773014168 -0.8545315754810046
3859 0.35209860128151416 0.29096998570540566 -0.7435259872412848
3824 -0.6530575154257413 -0.29976217605741634 -0.449137814636123
3828 0.8902592301701275 -0.5392196147727489 -0.45564033950331734
3863 -0.3550463581594865 0.19094674433374592 1.17332346923064
3832 1.1122671375922426 -0.03599720721216844 0.630602003843089
3867 -0.5135011934134275 1.3179409806081703 -0.4360358140144224
3836 0.21679823386044672 1.1166597709745407 0.824114002194939
3871 -0.32453623236986046 0.14016555787942242 -1.2201871408909217
3840 0.9603399072500666 0.2445503875723118 0.12455810897279763
3875 0.7389231289657664 -1.2761828469946603 0.5611595139660142
3879 0.5038946762620572 -0.7680749370448353 -0.20444289198122276
3844 -0.11194668004678743 0.06161206595591828 -0.8633281067516207
3883 -0.015114438282594057 0.45199191803197214 -2.0416494348515855
3848 1.1462139831276472 -0.5497013538498876 1.1539733400554248
3887 0.006046670749953595 -1.6120723721836563 0.3285899129181133
3852 0.5015146557313065 0.49556466648363773 -0.5694777659467143
3891 0.8934987244664717 -0.7295443123248437 -0.11801819172662889
3856 -0.08140927827973002 -0.07498931722409222 -0.0958952401075166
3895 0.6252770291263955 -1.0286375923967623 0.04387175688268308
3860 0.5074361838778689 -1.6197387918719008 -0.27124080494478237
3899 -0.2794105671928411 -1.1723424178046045 -0.29175647648745034
3864 0.6359071136235617 -0.21096100360800038 -0.22723527677855732
3868 -0.3669878747596238 0.11291828955670916 -0.7200737111718594
3903 -0.9781725306674317 0.9725318098687279 0.6972056026952959
3872 -1.090449243816444 0.19511986195173306 0.7280962841483744
3907 0.5072903282730346 -1.1557717269796934 -0.06412531205705818
3876 0.2805246715596099 0.10527558430874981 -0.2823935908840657
3911 -1.1811869277062452 0.7784736116166411 1.5086259799167645
3880 -0.06399555149231036 0.13523233073674726 -0.3807135486124251
3915 0.6310379462775925 -0.33754654909657694 -0.34226664443140326
3919 -0.2626684760305343 -0.4597061962227668 0.5584628081889508
3884 1.727824816353466 0.42662506938981043 0.8170305177437455
3923 0.7636586198978124 -1.598795193855116 1.0705809235950479
3888 -0.9839431509406015 -0.4050563472876524 -1.0896015823938228
3927 -1.2331504250717058 0.6229650554513378 -1.2960322514171279
3892 0.9573834793029051 0.4551593373663573 -0.4944391129521622
3931 -1.0615875272049364 0.6979200252818153 1.1324319209639775
3896 -1.183781043346031 -0.6428895314369757 0.4592444098914376
3935 -1.2923074989729009 0.7771209776904806 -0.74710970820299
3900 -1.5492730224916669 0.018614037840868656 0.9555245830660197
3939 -0.1829376458238202 -1.3168572279401674 0.3190580151554434
3904 0.09583558783514992 0.9298490063527668 1.7182154770916953
3908 0.0025125802684111288 -0.019685668965563147 0.12470458633197441
3943 -0.7856141586233435 -2.5718593208135316 -0.7351913880656002
3912 0.8605799578684749 0.5852294303372062 -0.7432569610188839
3947 0.5051383267248879 -0.6380543460152068 0.5561768353724628
3916 1.0315070567304743 -0.19623954424554602 0.26890701054098487
3951 1.0640639625262711 -0.9180925472149984 -0.9020375463261345
3920 -0.27833320900289005 -1.7165852707475526 -1.6306519821346213
3955 0.8571281986862059 -0.442433005233061 -0.891744552914306
3959 -0.04796940388931212 0.23019312378720105 0.09162464985415972
3924 0.5827668414018952 0.37579364176985103 -0.04378567604478313
3963 0.6127071536248043 -0.6494072417601842 0.9325704526794373
3928 0.7491273117600419 -0.3481610900933237 1.5164265243953057
3967 -0.7120448507954449 -1.1168206580299516 -0.8860546735862068
3932 0.6949061052695439 0.39119363056193224 -0.025530433651535074
3971 0.7022962435934328 -0.4242460701001442 0.13492908695755013
3936 -0.041900095066547946 -1.553028739195849 -0.26336866459013125
3975 -0.33531243938493327 0.485284071829195 -0.3796451923619363
3940 -0.07009033996297451 1.8853584643366084 0.10424446408853003
3979 -0.37106555893578863 -0.278113488500027 -0.9441254155682792
3944 0.8766132206598739 0.9397034319309693 -0.9666226779935568
3948 -2.8590892743467995 -1.206685779473648 0.9430500810853341
3983 0.6992728830667961 1.0476376603973396 -0.14909953396555453
3952 0.5221320181501592 0.30653038804348726 -1.3073484347956823
3987 -0.07456484260807296 0.7338000855512584 0.3984352895293628
3956 -0.2336416932680896 -0.05323276373115149 -1.06124575886909
3991 1.5014629014805243 1.425798212515823 -0.12151788577985397
3960 0.6699244786656158 -0.39793315068385454 1.366355635961213
3995 -1.0633692711513725 0.43315394754399766 -1.139845975191897
3999 -0.5088723710739056 0.27662008354666423 -0.21546032663864836
3964 -0.46677364167512037 -0.6714002287409031 0.1683544623515117
3968 0.7950996928314306 -1.0166360778002617 -1.5231558998278403
3972 -0.20896547455111344 1.2622571478580233 2.013878644070316
3976 -1.0838959159486263 -1.2247324368578882 0.2959077385131468
3980 -0.19341416617848425 0.052171069549048876 -0.24621159746694654
3984 0.5169012962081607 -0.3408611863025639 0.5504037541922947
3988 0.033341977685736116 -0.02362826827285796 -0.6838631399008693
3992 0.7821249168077393 -0.306725615929069 0.4232541470857962
3996 0.24141870149976763 -0.5612914169679312 -0.21635082860049865
4000 -1.7414013630275829 -0.6833320041959847 -0.09773150130028471
