variable  newton_pair     index  on
variable  newton_bond     index  on
variable  units           index  metal
variable  input_dir       index  .
variable  data_file       index ${input_dir}/data.manybody
variable  pair_style      index 'zero 8.0'

atom_style       atomic
atom_modify      map array
neigh_modify     delay 2 every 2 check no
units            ${units}
timestep         0.0001
newton           ${newton_pair} ${newton_bond}

pair_style       ${pair_style}
read_data        ${data_file}

mass 1 180.88

pair_style pod
pair_coeff * * Ta_param.pod Ta_coeff.pod Ta Ta Ta Ta Ta Ta Ta Ta

# Setup output

thermo          1
thermo_modify norm yes

# Set up NVE run

timestep 0.5e-3
neighbor 1.0 bin
neigh_modify once no every 1 delay 0 check yes

# Run MD

velocity all create 300.0 4928459 loop geom
fix 1 all nve
run  10          

