pair_style      eam/fs
pair_coeff      * * FeVoter-ChenRecheck.fs Fe
