LAMMPS (4 Jul 2026 - Development - patch_4Jul2026-848-gd03be1b44b)
  using 1 OpenMP thread(s) per MPI task
units       lj
dimension   3
boundary    p p p
atom_style  atomic

# truncated and shifted LJ potential
pair_style  lj/cut 2.5
pair_modify shift yes
read_data   data.halfhalf
Reading data file ...
  orthogonal box = (0 0 0) to (12.815164 12.815164 34)
  1 by 1 by 1 MPI processor grid
  reading atoms ...
  5120 atoms
  reading velocities ...
  5120 velocities
  read_data CPU = 0.012 seconds
pair_coeff  1 1 1.0 1.0 2.5
mass        1 1.0

# simulation parameters
neighbor        0.6 bin
timestep        0.004
run_style       verlet

velocity all create 0.8 1 mom yes rot yes loop geom
fix ensemble all npt temp 0.8 0.8 4.0 z 2.185 2.185 8.0
fix 100 all momentum 100 linear 1 1 1

# harmonic rho_k bias-field
#                 nx ny nz K     a
fix bias all rhok 16 0  0  4.0   26.00

# output                                U_bias rho_k_RE  rho_k_IM |rho_k|
thermo_style custom step temp pzz pe lz f_bias f_bias[1] f_bias[2] f_bias[3]
thermo 50
# dump dumpXYZ all xyz 500 traj.xyz

# NOTE: run reduced for demonstration purposes
# run 50000
run 5000

CITE-CITE-CITE-CITE-CITE-CITE-CITE-CITE-CITE-CITE-CITE-CITE-CITE

Your simulation uses code contributions which should be cited:

- Bias on the collective density field (fix rhok): https://doi.org/10.1063/1.4818747

@Article{pedersen_jcp139_104102_2013,
title = {Direct Calculation of the Solid-Liquid {G}ibbs Free Energy Difference in a Single Equilibrium Simulation},
volume = {139},
number = {10},
url = {https://aip.scitation.org/doi/10.1063/1.4818747},
doi = {10.1063/1.4818747},
urldate = {2017-10-03},
journal = {J.~Chem.\ Phys.},
author = {Pedersen, Ulf R.},
year = {2013},
pages = {104102}
}

CITE-CITE-CITE-CITE-CITE-CITE-CITE-CITE-CITE-CITE-CITE-CITE-CITE

Generated 0 of 0 mixed pair_coeff terms from geometric mixing rule
Neighbor list info ...
  update: every = 1 steps, delay = 0 steps, check = yes
  max neighbors/atom: 2000, page size: 100000
  master list distance cutoff = 3.1
  ghost atom cutoff = 3.1
  binsize = 1.55, bins = 9 9 22
  1 neighbor lists, perpetual/occasional/extra = 1 0 0
  (1) pair lj/cut, perpetual
      attributes: half, newton on
      pair build: half/bin/atomonly/newton
      stencil: half/bin/3d
      bin: standard
Per MPI rank memory allocation (min/avg/max) = 4.532 | 4.532 | 4.532 Mbytes
   Step          Temp           Pzz           PotEng           Lz           f_bias       f_bias[1]      f_bias[2]      f_bias[3]   
         0   0.8            5.2763803     -4.9234406      34             198.0912       35.951828      0.15575876     35.952166    
        50   1.0536034      3.914604      -5.2713871      34.025735      0.49485888     26.496111      0.26361512     26.497423    
       100   1.0870172      3.5420031     -5.3342619      34.099573      2.5178615      27.121849      0.096446333    27.122021    
       150   1.101684       3.5797704     -5.3750448      34.210298      0.73110505     26.604548     -0.05694598     26.604609    
       200   1.0978683      3.7164254     -5.3949258      34.351198      0.66996983     26.57201       0.5997976      26.578779    
       250   1.0964227      3.5142855     -5.4205997      34.508056      1.3590964      26.81595      -0.67112739     26.824347    
       300   1.0693088      3.6680519     -5.4071815      34.662374      0.15929261     26.269048     -0.83188809     26.282217    
       350   1.0337649      3.7992688     -5.380091       34.810807      0.32515802     25.558966     -1.3910018      25.596789    
       400   1.0024209      3.9833166     -5.3589855      34.957469      0.23984988     26.346229      0.061865398    26.346302    
       450   0.96018853     4.1162351     -5.3234398      35.110792      4.8168637      27.544687     -0.63095183     27.551912    
       500   0.9304833      3.9544857     -5.3062984      35.27389       4.3112374      27.467401     -0.20983891     27.468203    
       550   0.92097401     3.8479356     -5.3188153      35.440854      2.8781606      27.190386     -0.70854696     27.199617    
       600   0.90795372     3.3999056     -5.325078       35.60475       5.2636291      27.573533     -1.6404268      27.622287    
       650   0.89779721     3.2105555     -5.3311923      35.755073      0.59644671     26.523043     -1.1061422      26.546098    
       700   0.8995094      2.8194664     -5.3533306      35.888698      2.2084042      26.955313     -2.2710029      27.05081     
       750   0.90060215     2.3480679     -5.3702843      36.000404      1.0773017      26.573973     -2.9200854      26.733928    
       800   0.90539913     1.951256      -5.3899343      36.084747      2.6305115      27.011525     -2.7071668      27.146846    
       850   0.8875747      1.805029      -5.372758       36.142713      0.074201411    25.952776     -3.5364591      26.192615    
       900   0.88332799     1.6189091     -5.3746562      36.175911      0.20689945     26.117821     -3.2692463      26.321636    
       950   0.88496408     1.3456338     -5.3840409      36.184607      0.79199772     26.370181     -3.7057162      26.629284    
      1000   0.87804203     1.3705861     -5.3793622      36.168226      1.3355166      26.559522     -3.7083883      26.817165    
      1050   0.87965137     1.202158      -5.3862429      36.129416      0.083642286    25.651581     -5.3546568      26.204502    
      1100   0.85844189     1.3856055     -5.3581209      36.069863      0.16670879     25.853917     -4.7614398      26.288712    
      1150   0.8678369      1.2992665     -5.3751411      35.994797      0.0074615829   25.244607     -5.961322       25.93892     
      1200   0.86008703     1.3105059     -5.3659022      35.907412      0.096922443    24.978767     -6.3767084      25.779861    
      1250   0.86103845     1.4193671     -5.3690311      35.813049      0.03028919     24.853081     -7.2069564      25.876937    
      1300   0.8647822      1.5156061     -5.3761282      35.718322      0.73078975     24.087568     -8.0449701      25.395521    
      1350   0.87607934     1.5006496     -5.3943821      35.626359      0.20978556     24.510876     -7.6472552      25.676128    
      1400   0.87854882     1.6170952     -5.3996479      35.53935       0.40373845     24.972727     -8.7136838      26.449299    
      1450   0.87604562     1.8801661     -5.3974235      35.45984       0.0084222716   24.572594     -8.2956236      25.935107    
      1500   0.89058091     1.8347344     -5.4215176      35.389294      0.42158303     25.148381     -8.2245972      26.45912     
      1550   0.89315915     2.071752      -5.4279534      35.32719       0.12427576     24.516523     -7.8765439      25.750725    
      1600   0.89130549     2.2838272     -5.428572       35.276282      1.5819378      25.861417     -7.3637653      26.889364    
      1650   0.88242423     2.453219      -5.4188469      35.240729      0.0011743601   25.113282     -6.6380438      25.975768    
      1700   0.88351251     2.5839199     -5.4259125      35.219738      2.4289057      26.047489     -7.4865149      27.102022    
      1750   0.87030476     2.6367489     -5.4117097      35.21318       0.43678218     25.387063     -7.484399       26.467323    
      1800   0.8687084      2.6965654     -5.4165761      35.220349      1.4335576      25.995467     -6.7065005      26.846628    
      1850   0.87325191     2.4986336     -5.4311621      35.240451      0.24164592     25.518398     -6.5579843      26.347596    
      1900   0.86404307     2.420809      -5.4258016      35.268826      0.062659056    25.602987     -5.4518303      26.177001    
      1950   0.85082994     2.4996893     -5.4147173      35.301007      0.26427531     25.769376     -5.565411       26.363507    
      2000   0.86099064     2.2480281     -5.438652       35.335852      0.24767276     25.958743     -4.5350327      26.351904    
      2050   0.84341617     2.2156538     -5.4205192      35.368108      0.1914169      25.858112     -4.851892       26.309368    
      2100   0.85068168     1.9977776     -5.4395603      35.395187      2.6734309      26.539647     -5.7536395      27.156164    
      2150   0.85303192     1.7925777     -5.4494589      35.412497      0.3117577      25.002111     -5.5244842      25.605185    
      2200   0.85595134     1.7695677     -5.4597308      35.417552      0.013699637    25.211878     -6.0053593      25.917236    
      2250   0.84206998     1.7059227     -5.4442667      35.410093      0.99917087     25.557748     -7.749544       26.706814    
      2300   0.83487139     1.733459      -5.4378134      35.390086      0.40440189     24.409526     -7.5494705      25.550332    
      2350   0.83451105     1.7342169     -5.4409003      35.358868      0.31956357     24.921702     -8.70944        26.399727    
      2400   0.83921613     1.6019569     -5.451038       35.317869      0.0050449126   24.239472     -9.2649263      25.949776    
      2450   0.8465855      1.6194882     -5.4647285      35.266719      0.026772795    24.010809     -9.6684056      25.8843      
      2500   0.84675279     1.6247533     -5.4671582      35.208198      0.44442968     23.239079     -10.566683      25.528603    
      2550   0.8470235      1.7708688     -5.469545       35.144584      1.6823939      22.575053     -10.932312      25.082832    
      2600   0.84347108     1.8472403     -5.4654477      35.07943       0.17755178     22.958033     -11.555257      25.702047    
      2650   0.84530909     1.9992116     -5.4696617      35.015851      0.15821925     23.73069      -11.294212      26.281264    
      2700   0.85339153     1.8144196     -5.483484       34.958124      0.29299698     23.478451     -12.033782      26.382751    
      2750   0.85947998     2.0307523     -5.4945497      34.904602      0.14039753     23.085281     -11.373767      25.73505     
      2800   0.86911744     2.0956334     -5.5114194      34.857001      0.048860748    23.10651      -12.257297      26.156302    
      2850   0.84920242     2.3033729     -5.4847892      34.816807      2.6657323      24.242037     -12.234804      27.154498    
      2900   0.8496361      2.2991946     -5.488318       34.785898      0.00062788168  23.388308     -11.39775       26.017718    
      2950   0.85243979     2.3983996     -5.4965116      34.764086      0.0014801426   23.401306     -11.392727      26.027204    
      3000   0.84734753     2.5365907     -5.4936676      34.752064      0.023091554    23.156366     -11.584765      25.892549    
      3050   0.85790101     2.4492892     -5.515266       34.751067      0.76180857     23.242952     -12.970704      26.617174    
      3100   0.84640994     2.473765      -5.5042117      34.757736      0.97580064     23.515863     -12.641757      26.698499    
      3150   0.84860183     2.2010215     -5.5137454      34.76906       0.20682649     23.162009     -12.503875      26.321579    
      3200   0.83025148     2.3906193     -5.4928086      34.780364      1.3161623      23.545443     -12.823952      26.811222    
      3250   0.8452644      2.1461183     -5.5214085      34.792403      0.062321596    22.964326     -12.563843      26.176524    
      3300   0.85139255     2.1280607     -5.5365608      34.801022      0.00015130301  22.453193     -13.126557      26.008698    
      3350   0.83336219     2.0786263     -5.5151861      34.805995      0.1934865      22.560749     -13.538213      26.311036    
      3400   0.8433625      1.883138      -5.5358072      34.80741       1.2628653      22.271291     -14.897707      26.794627    
      3450   0.83738796     1.926146      -5.5320904      34.803532      2.9485529      22.302649     -15.595012      27.214198    
      3500   0.82717425     1.9368019     -5.5208857      34.794923      0.37543633     20.50832      -15.266524      25.566735    
      3550   0.82460949     1.9290447     -5.5211599      34.781203      0.092253692    20.785281     -15.974553      26.214772    
      3600   0.82876356     1.9061976     -5.5312353      34.76182       0.50292018     19.572279     -16.343241      25.498542    
      3650   0.82608028     1.9274962     -5.5305235      34.737678      0.2748538      19.829756     -17.383762      26.370711    
      3700   0.82572323     1.87421       -5.532999       34.71017       0.08996543     19.007009     -18.050134      26.212091    
      3750   0.82313487     2.0291866     -5.531891       34.678314      0.021477605    18.438855     -18.183254      25.896372    
      3800   0.83029999     2.0588322     -5.5451891      34.643979      0.41572539     18.318334     -19.088067      26.45592     
      3850   0.83086674     1.8821105     -5.5487571      34.609473      1.6715386      17.550356     -17.924345      25.085796    
      3900   0.8416714      2.0077484     -5.5672454      34.572108      1.447009       19.09108      -18.880807      26.850591    
      3950   0.8310031      2.1162886     -5.5535147      34.535866      2.0894293      18.856469     -19.355314      27.022113    
      4000   0.83570425     2.1531229     -5.5626469      34.503207      0.41191804     18.916254     -18.492709      26.453827    
      4050   0.83211132     2.2560584     -5.5597958      34.475548      0.011902018    17.939173     -18.926263      26.077143    
      4100   0.83335308     2.2772381     -5.5648465      34.453181      0.86890625     18.200996     -19.47904       26.659131    
      4150   0.83098647     2.3463478     -5.5650324      34.436391      2.5783188      18.357904     -19.98294       27.135412    
      4200   0.8253398      2.3129127     -5.5601491      34.426233      1.1914885      16.227052     -19.3169        25.228155    
      4250   0.81534746     2.3436574     -5.5492442      34.421803      0.79079015     16.529809     -20.877228      26.628804    
      4300   0.81933606     2.3114129     -5.5596232      34.422136      0.11181662     16.553534     -20.355142      26.236449    
      4350   0.83187459     2.2262795     -5.5831724      34.424666      0.00080403706  16.322152     -20.264017      26.02005     
      4400   0.82199631     2.20931       -5.5732241      34.428113      0.80385198     15.952105     -21.328363      26.633976    
      4450   0.80336972     2.3263446     -5.5501257      34.433158      1.1777108      16.060343     -21.413954      26.767369    
      4500   0.81774389     2.1227963     -5.576563       34.43984       1.4459776      16.530519     -21.158447      26.850287    
      4550   0.80509416     2.13977       -5.5617748      34.444544      0.1597368      14.962305     -21.607985      26.28261     
      4600   0.82593903     1.7953        -5.5974946      34.446188      0.96352201     14.787754     -22.223789      26.69409     
      4650   0.81153586     2.1010464     -5.5794769      34.440222      0.77652818     12.539531     -22.062339      25.376892    
      4700   0.82076724     1.9701338     -5.5969555      34.429421      1.8407596      12.770864     -23.742627      26.959364    
      4750   0.81456859     1.9892609     -5.5904208      34.4149        0.20310168     12.105887     -23.369208      26.31867     
      4800   0.81285103     1.9067291     -5.5906007      34.396401      0.12025882     11.552416     -23.018487      25.754787    
      4850   0.81764294     1.9335005     -5.6001729      34.373046      0.035401484    11.361457     -23.534088      26.133044    
      4900   0.81895986     1.9446291     -5.6042814      34.346197      3.5970266e-06  10.842931     -23.629666      25.998659    
      4950   0.80912562     2.1027869     -5.5914123      34.316611      0.023850093    10.705342     -23.573907      25.890798    
      5000   0.81264415     2.1654243     -5.5984513      34.287324      0.04337466     10.286402     -23.718216      25.852734    
Loop time of 14.6191 on 1 procs for 5000 steps with 5120 atoms

Performance: 118201.703 tau/day, 342.019 timesteps/s, 1.751 Matom-step/s
99.6% CPU use with 1 MPI tasks x 1 OpenMP threads

MPI task timing breakdown:
Section |  min time  |  avg time  |  max time  |%varavg| %total
---------------------------------------------------------------
Pair    | 11.332     | 11.332     | 11.332     |   0.0 | 77.51
Neigh   | 1.5372     | 1.5372     | 1.5372     |   0.0 | 10.52
Comm    | 0.10918    | 0.10918    | 0.10918    |   0.0 |  0.75
Output  | 0.0034227  | 0.0034227  | 0.0034227  |   0.0 |  0.02
Modify  | 1.5955     | 1.5955     | 1.5955     |   0.0 | 10.91
Other   |            | 0.04191    |            |       |  0.29

Nlocal:           5120 ave        5120 max        5120 min
Histogram: 1 0 0 0 0 0 0 0 0 0
Nghost:           8093 ave        8093 max        8093 min
Histogram: 1 0 0 0 0 0 0 0 0 0
Neighs:         296578 ave      296578 max      296578 min
Histogram: 1 0 0 0 0 0 0 0 0 0

Total # of neighbors = 296578
Ave neighs/atom = 57.925391
Neighbor list builds = 281
Dangerous builds = 0
Total wall time: 0:00:14
