LAMMPS (4 Jul 2026 - Development - patch_4Jul2026-848-gd03be1b44b)
  using 1 OpenMP thread(s) per MPI task
units           lj
dimension       3
boundary        p p p
atom_style  atomic

# truncated and shifted LJ potential
pair_style      lj/cut 2.5
pair_modify     shift yes
lattice fcc 0.9731
Lattice spacing in x,y,z = 1.6018955 1.6018955 1.6018955
region  my_box block 0 8.0   0 8.0   0 20.0
create_box 1 my_box
Created orthogonal box = (0 0 0) to (12.815164 12.815164 32.037909)
  1 by 1 by 4 MPI processor grid
region particles block 0 8.0 0 8.0 0 20.0
create_atoms 1 region particles
Created 5120 atoms
  using lattice units in orthogonal box = (0 0 0) to (12.815164 12.815164 32.037909)
  create_atoms CPU = 0.001 seconds
pair_coeff 1 1 1.0 1.0 2.5
pair_modify tail no
pair_modify shift yes
mass 1 1.0
velocity all create 1.6 1 mom yes rot yes loop geom

# simulation parameters
neighbor        0.6 bin
timestep        0.004
run_style       verlet
fix ensemble all npt temp 0.8 0.8 4.0 aniso 2.185 2.185 8.0 pchain 32

# computing long-range order (no bias is added since k=0)
fix bias all rhok 16 0 0 0.0 0.0

# output
thermo 50
thermo_style custom step temp press density f_bias[3]
# dump dumpXYZ all xyz 2000 traj.xyz

# NOTE: this is cut short to 5000 steps for demonstration purposes
# run 100000
run 5000

CITE-CITE-CITE-CITE-CITE-CITE-CITE-CITE-CITE-CITE-CITE-CITE-CITE

Your simulation uses code contributions which should be cited:

- Bias on the collective density field (fix rhok): https://doi.org/10.1063/1.4818747

@Article{pedersen_jcp139_104102_2013,
title = {Direct Calculation of the Solid-Liquid {G}ibbs Free Energy Difference in a Single Equilibrium Simulation},
volume = {139},
number = {10},
url = {https://aip.scitation.org/doi/10.1063/1.4818747},
doi = {10.1063/1.4818747},
urldate = {2017-10-03},
journal = {J.~Chem.\ Phys.},
author = {Pedersen, Ulf R.},
year = {2013},
pages = {104102}
}

CITE-CITE-CITE-CITE-CITE-CITE-CITE-CITE-CITE-CITE-CITE-CITE-CITE

Generated 0 of 0 mixed pair_coeff terms from geometric mixing rule
Neighbor list info ...
  update: every = 1 steps, delay = 0 steps, check = yes
  max neighbors/atom: 2000, page size: 100000
  master list distance cutoff = 3.1
  ghost atom cutoff = 3.1
  binsize = 1.55, bins = 9 9 21
  1 neighbor lists, perpetual/occasional/extra = 1 0 0
  (1) pair lj/cut, perpetual
      attributes: half, newton on
      pair build: half/bin/atomonly/newton
      stencil: half/bin/3d
      bin: standard
Per MPI rank memory allocation (min/avg/max) = 3.23 | 3.23 | 3.23 Mbytes
   Step          Temp          Press         Density       f_bias[3]   
         0   1.6           -2.7568106      0.9731         71.554175    
        50   0.78029127     3.1408546      0.97366819     54.44182     
       100   0.84841285     2.5268349      0.97216324     55.186191    
       150   0.83360759     2.4515881      0.96972662     55.099473    
       200   0.83276386     2.2434302      0.96681485     55.007982    
       250   0.82400152     2.1194851      0.96391459     55.397056    
       300   0.81739997     1.9820228      0.96131397     55.225565    
       350   0.82466217     1.7832253      0.95926015     55.327986    
       400   0.81243531     1.7934383      0.95804135     55.756905    
       450   0.81124639     1.7660993      0.95777174     55.75052     
       500   0.80616226     1.8289612      0.95847242     55.537231    
       550   0.81769424     1.8425668      0.96000659     55.903008    
       600   0.81580736     1.9902312      0.96221029     55.89775     
       650   0.81574183     2.1363638      0.96474576     56.284475    
       700   0.83030628     2.194531       0.96728171     56.930347    
       750   0.83632659     2.2865431      0.96961548     57.243132    
       800   0.84021078     2.3929919      0.97149971     57.47673     
       850   0.83142597     2.5328779      0.97276527     56.990577    
       900   0.84819112     2.4299919      0.97324518     57.048422    
       950   0.83255688     2.5054749      0.97307445     56.31645     
      1000   0.83568805     2.4194711      0.97224573     56.294859    
      1050   0.83707635     2.2920967      0.97090856     56.850131    
      1100   0.82423689     2.2803915      0.96933833     56.927264    
      1150   0.81931218     2.1795552      0.96772882     56.470499    
      1200   0.81617323     2.1077705      0.96627568     55.478756    
      1250   0.81908565     1.9931183      0.96508326     55.457609    
      1300   0.80570935     2.0430977      0.9642939      55.177821    
      1350   0.816681       1.9254132      0.96396789     55.874863    
      1400   0.80529748     1.9970738      0.96416232     55.831142    
      1450   0.80805527     2.0200824      0.9648429      56.453129    
      1500   0.81967319     2.0109785      0.96592532     56.154943    
      1550   0.81075054     2.1596632      0.96728687     55.237791    
      1600   0.8235398      2.1480765      0.96868816     55.924428    
      1650   0.82800241     2.1922702      0.97002702     56.828329    
      1700   0.82211882     2.321882       0.97123464     56.295797    
      1750   0.83051887     2.3005076      0.97208343     56.632107    
      1800   0.81395849     2.4420479      0.97260272     56.445713    
      1850   0.82206082     2.3877388      0.97265623     56.756332    
      1900   0.82039349     2.3609986      0.9722871      56.613774    
      1950   0.82264175     2.2870616      0.97152304     57.458611    
      2000   0.81123974     2.2802835      0.97054347     57.654528    
      2050   0.82725011     2.0850949      0.9694699      57.407597    
      2100   0.80970446     2.1366438      0.96847588     56.823921    
      2150   0.80196244     2.1132163      0.96762949     56.08785     
      2200   0.81851289     1.9481693      0.96706482     56.01858     
      2250   0.80741662     2.0012741      0.96686691     56.571223    
      2300   0.80432871     2.0466911      0.96701395     56.61693     
      2350   0.80708068     2.0406767      0.9675097      56.624581    
      2400   0.80956018     2.0540762      0.96830215     56.554299    
      2450   0.80937344     2.1073798      0.96933093     56.223818    
      2500   0.8152348      2.1469246      0.97052685     57.342718    
      2550   0.80594866     2.2763203      0.97173477     56.753281    
      2600   0.81417044     2.2755927      0.97276401     57.760181    
      2650   0.82310896     2.264251       0.97358508     58.192916    
      2700   0.81439976     2.3471319      0.97415048     57.317766    
      2750   0.81124644     2.3810972      0.9743567      56.949864    
      2800   0.81955659     2.300119       0.9741637      57.445445    
      2850   0.81847395     2.2647075      0.97367188     57.683688    
      2900   0.80036355     2.329514       0.97293892     56.88695     
      2950   0.80901133     2.2026587      0.97198189     56.934321    
      3000   0.81027317     2.1126384      0.97097579     56.636263    
      3050   0.80147036     2.0923976      0.97002921     57.03011     
      3100   0.80306583     2.0322422      0.96931215     57.228227    
      3150   0.78922033     2.0887097      0.9689602      57.052977    
      3200   0.79459184     2.0392444      0.96895078     57.286297    
      3250   0.79179233     2.0793607      0.96934557     56.53646     
      3300   0.79406809     2.0986122      0.97003389     57.134282    
      3350   0.79622621     2.147865       0.9709882      56.63662     
      3400   0.79953893     2.189135       0.97210991     56.584022    
      3450   0.80720124     2.2172266      0.9732339      57.253776    
      3500   0.80543244     2.2890562      0.97427985     56.757712    
      3550   0.80595237     2.3316913      0.97510173     56.551713    
      3600   0.80209456     2.3828894      0.97561492     56.571461    
      3650   0.80493532     2.3563241      0.97580079     57.005379    
      3700   0.81224374     2.2863598      0.97563107     57.582779    
      3750   0.80929268     2.2739778      0.97517293     57.176102    
      3800   0.80699414     2.2316534      0.97441762     57.274503    
      3850   0.80294749     2.1989183      0.97347055     57.13561     
      3900   0.80707597     2.0896069      0.97248512     57.911606    
      3950   0.79789759     2.0842425      0.9715956      56.847994    
      4000   0.79094022     2.0902955      0.97089143     56.79916     
      4050   0.80168325     1.966733       0.97045196     57.417996    
      4100   0.79787715     1.9850243      0.97040819     57.190944    
      4150   0.78566046     2.0799537      0.97075069     57.801419    
      4200   0.79897124     2.0314317      0.97143792     57.177882    
      4250   0.79367538     2.14673        0.97240745     56.347625    
      4300   0.80105841     2.1632205      0.97345495     56.146272    
      4350   0.79904526     2.2361969      0.97453196     56.300218    
      4400   0.80743944     2.2378784      0.97546891     56.926769    
      4450   0.80427067     2.3023328      0.97619741     57.128136    
      4500   0.80638225     2.3097032      0.97664935     57.167769    
      4550   0.79476841     2.4006105      0.97680714     57.222022    
      4600   0.80044726     2.3360086      0.97657715     57.466313    
      4650   0.8110276      2.2217765      0.97601466     57.806508    
      4700   0.80443916     2.2039304      0.97523823     57.423753    
      4750   0.79312365     2.2137099      0.97432301     57.111661    
      4800   0.79390317     2.1419094      0.9733729      57.239504    
      4850   0.79283642     2.0798251      0.97250364     57.334669    
      4900   0.78916727     2.0590094      0.9718798      56.573218    
      4950   0.79330689     2.0195077      0.97152877     56.619034    
      5000   0.77674704     2.1155578      0.97149606     56.445937    
Loop time of 3.94285 on 4 procs for 5000 steps with 5120 atoms

Performance: 438261.236 tau/day, 1268.117 timesteps/s, 6.493 Matom-step/s
99.4% CPU use with 4 MPI tasks x 1 OpenMP threads

MPI task timing breakdown:
Section |  min time  |  avg time  |  max time  |%varavg| %total
---------------------------------------------------------------
Pair    | 2.9412     | 2.958      | 2.9893     |   1.1 | 75.02
Neigh   | 0.38272    | 0.38377    | 0.3853     |   0.2 |  9.73
Comm    | 0.14134    | 0.17382    | 0.1913     |   4.7 |  4.41
Output  | 0.0012354  | 0.0013175  | 0.0015517  |   0.4 |  0.03
Modify  | 0.40907    | 0.41018    | 0.41127    |   0.1 | 10.40
Other   |            | 0.01574    |            |       |  0.40

Nlocal:           1280 ave        1299 max        1235 min
Histogram: 1 0 0 0 0 0 0 0 0 3
Nghost:        3358.75 ave        3367 max        3346 min
Histogram: 1 0 0 0 0 1 0 0 1 1
Neighs:          80561 ave       82107 max       76851 min
Histogram: 1 0 0 0 0 0 0 0 0 3

Total # of neighbors = 322244
Ave neighs/atom = 62.938281
Neighbor list builds = 248
Dangerous builds = 0
Total wall time: 0:00:03
