LAMMPS (4 Jul 2026 - Development - patch_4Jul2026-848-gd03be1b44b)
  using 1 OpenMP thread(s) per MPI task
units           lj
dimension       3
boundary        p p p
atom_style  atomic

# truncated and shifted LJ potential
pair_style      lj/cut 2.5
pair_modify     shift yes
lattice fcc 0.9731
Lattice spacing in x,y,z = 1.6018955 1.6018955 1.6018955
region  my_box block 0 8.0   0 8.0   0 20.0
create_box 1 my_box
Created orthogonal box = (0 0 0) to (12.815164 12.815164 32.037909)
  1 by 1 by 1 MPI processor grid
region particles block 0 8.0 0 8.0 0 20.0
create_atoms 1 region particles
Created 5120 atoms
  using lattice units in orthogonal box = (0 0 0) to (12.815164 12.815164 32.037909)
  create_atoms CPU = 0.002 seconds
pair_coeff 1 1 1.0 1.0 2.5
pair_modify tail no
pair_modify shift yes
mass 1 1.0
velocity all create 1.6 1 mom yes rot yes loop geom

# simulation parameters
neighbor        0.6 bin
timestep        0.004
run_style       verlet
fix ensemble all npt temp 0.8 0.8 4.0 aniso 2.185 2.185 8.0 pchain 32

# computing long-range order (no bias is added since k=0)
fix bias all rhok 16 0 0 0.0 0.0

# output
thermo 50
thermo_style custom step temp press density f_bias[3]
# dump dumpXYZ all xyz 2000 traj.xyz

# NOTE: this is cut short to 5000 steps for demonstration purposes
# run 100000
run 5000

CITE-CITE-CITE-CITE-CITE-CITE-CITE-CITE-CITE-CITE-CITE-CITE-CITE

Your simulation uses code contributions which should be cited:

- Bias on the collective density field (fix rhok): https://doi.org/10.1063/1.4818747

@Article{pedersen_jcp139_104102_2013,
title = {Direct Calculation of the Solid-Liquid {G}ibbs Free Energy Difference in a Single Equilibrium Simulation},
volume = {139},
number = {10},
url = {https://aip.scitation.org/doi/10.1063/1.4818747},
doi = {10.1063/1.4818747},
urldate = {2017-10-03},
journal = {J.~Chem.\ Phys.},
author = {Pedersen, Ulf R.},
year = {2013},
pages = {104102}
}

CITE-CITE-CITE-CITE-CITE-CITE-CITE-CITE-CITE-CITE-CITE-CITE-CITE

Generated 0 of 0 mixed pair_coeff terms from geometric mixing rule
Neighbor list info ...
  update: every = 1 steps, delay = 0 steps, check = yes
  max neighbors/atom: 2000, page size: 100000
  master list distance cutoff = 3.1
  ghost atom cutoff = 3.1
  binsize = 1.55, bins = 9 9 21
  1 neighbor lists, perpetual/occasional/extra = 1 0 0
  (1) pair lj/cut, perpetual
      attributes: half, newton on
      pair build: half/bin/atomonly/newton
      stencil: half/bin/3d
      bin: standard
Per MPI rank memory allocation (min/avg/max) = 4.524 | 4.524 | 4.524 Mbytes
   Step          Temp          Press         Density       f_bias[3]   
         0   1.6           -2.7568106      0.9731         71.554175    
        50   0.78029127     3.1408546      0.97366819     54.44182     
       100   0.84841285     2.5268349      0.97216324     55.186191    
       150   0.83360759     2.4515881      0.96972662     55.099473    
       200   0.83276386     2.2434302      0.96681485     55.007982    
       250   0.82400152     2.1194851      0.96391459     55.397056    
       300   0.81739997     1.9820228      0.96131397     55.225565    
       350   0.82466217     1.7832253      0.95926015     55.327986    
       400   0.81243531     1.7934383      0.95804135     55.756905    
       450   0.81124639     1.7660993      0.95777174     55.75052     
       500   0.80616226     1.8289612      0.95847242     55.537231    
       550   0.81769424     1.8425668      0.96000659     55.903008    
       600   0.81580736     1.9902312      0.96221029     55.89775     
       650   0.81574183     2.1363638      0.96474576     56.284475    
       700   0.83030628     2.194531       0.96728171     56.930347    
       750   0.83632659     2.2865431      0.96961548     57.243132    
       800   0.84021078     2.3929919      0.97149971     57.47673     
       850   0.83142597     2.5328779      0.97276527     56.990577    
       900   0.84819112     2.4299919      0.97324518     57.048422    
       950   0.83255688     2.5054749      0.97307445     56.31645     
      1000   0.83568805     2.4194711      0.97224573     56.294859    
      1050   0.83707635     2.2920967      0.97090856     56.850131    
      1100   0.82423689     2.2803915      0.96933833     56.927264    
      1150   0.81931218     2.1795552      0.96772882     56.470499    
      1200   0.81617323     2.1077705      0.96627568     55.478756    
      1250   0.81908565     1.9931183      0.96508326     55.457609    
      1300   0.80570935     2.0430977      0.9642939      55.177821    
      1350   0.816681       1.9254132      0.96396789     55.874863    
      1400   0.80529748     1.9970738      0.96416232     55.831142    
      1450   0.80805527     2.0200824      0.9648429      56.453129    
      1500   0.81967319     2.0109785      0.96592532     56.154943    
      1550   0.81075054     2.1596632      0.96728687     55.237791    
      1600   0.8235398      2.1480765      0.96868816     55.924428    
      1650   0.82800241     2.1922702      0.97002702     56.828329    
      1700   0.82211879     2.3218819      0.97123464     56.295796    
      1750   0.83051884     2.3005074      0.97208343     56.632106    
      1800   0.81395844     2.4420482      0.97260272     56.445713    
      1850   0.82206089     2.3877379      0.97265623     56.756337    
      1900   0.82039345     2.360999       0.97228711     56.613768    
      1950   0.82264155     2.287062       0.97152304     57.458606    
      2000   0.81124014     2.2802746      0.97054347     57.654544    
      2050   0.8272497      2.0851027      0.9694699      57.407574    
      2100   0.8097048      2.1366415      0.96847589     56.823938    
      2150   0.80196249     2.1132208      0.9676295      56.087762    
      2200   0.81851217     1.94818        0.96706483     56.018414    
      2250   0.80741807     2.0012814      0.9668669      56.571028    
      2300   0.80432418     2.0467431      0.9670139      56.616869    
      2350   0.80707391     2.0407277      0.96750959     56.624001    
      2400   0.80956377     2.0540371      0.96830195     56.554082    
      2450   0.8093419      2.1075788      0.96933071     56.222287    
      2500   0.81523681     2.146901       0.97052658     57.342695    
      2550   0.80595419     2.2762501      0.97173447     56.754251    
      2600   0.81428081     2.2746013      0.97276363     57.757784    
      2650   0.82320782     2.2637292      0.97358478     58.192893    
      2700   0.81430177     2.3477682      0.97414989     57.318996    
      2750   0.81114558     2.3812753      0.97435553     56.950982    
      2800   0.81948889     2.3003963      0.97416411     57.453904    
      2850   0.81843618     2.2646527      0.97367533     57.680796    
      2900   0.8006134      2.325677       0.97294414     56.889653    
      2950   0.81232482     2.1776371      0.97199115     56.935419    
      3000   0.80967931     2.1179148      0.97100054     56.689749    
      3050   0.80510787     2.0678001      0.97006254     57.009167    
      3100   0.80357841     2.0344086      0.96936386     57.263693    
      3150   0.79306893     2.0604018      0.96900072     57.21493     
      3200   0.79005421     2.0666569      0.96899269     57.272197    
      3250   0.80025068     2.0359481      0.96935286     56.916998    
      3300   0.79776026     2.0871786      0.97002795     57.515396    
      3350   0.80792843     2.0686899      0.97100203     57.414226    
      3400   0.78708019     2.2850705      0.97216445     57.283326    
      3450   0.81255526     2.1822584      0.97326048     57.332941    
      3500   0.80096599     2.3088863      0.97426379     57.106802    
      3550   0.8136868      2.267436       0.97507447     57.258268    
      3600   0.79932913     2.4077642      0.97567372     56.437554    
      3650   0.82179046     2.2400814      0.9758502      56.928132    
      3700   0.79170082     2.4495589      0.97574027     57.119792    
      3750   0.80776826     2.2828459      0.97523656     57.8663      
      3800   0.80313537     2.267092       0.97447507     57.508585    
      3850   0.80254816     2.1997089      0.97350505     57.083978    
      3900   0.79349115     2.1758205      0.97246633     57.203257    
      3950   0.79754867     2.0772127      0.97146295     57.431727    
      4000   0.79102289     2.0696456      0.97069554     57.063101    
      4050   0.79876905     1.970839       0.97020189     57.096473    
      4100   0.79338821     2.0002852      0.97009735     56.887859    
      4150   0.7874529      2.065236       0.97040102     56.447974    
      4200   0.78334257     2.1196064      0.97102866     57.223129    
      4250   0.79908737     2.0639605      0.97191189     57.496735    
      4300   0.79342051     2.1723211      0.97308639     56.722219    
      4350   0.79386698     2.2530826      0.97432989     56.546123    
      4400   0.80167191     2.2745393      0.9754962      57.043713    
      4450   0.80714538     2.29951        0.97644767     57.61677     
      4500   0.80482472     2.353422       0.97710887     57.406833    
      4550   0.80047295     2.3863564      0.97738675     56.920621    
      4600   0.79061652     2.456359       0.97721068     57.197409    
      4650   0.80605132     2.2972449      0.97659314     57.208635    
      4700   0.79020227     2.3385326      0.97562869     56.904246    
      4750   0.78877116     2.2636001      0.97441236     57.656028    
      4800   0.78810542     2.1765089      0.97316207     57.263089    
      4850   0.78947552     2.0918436      0.9720272      56.786207    
      4900   0.80113001     1.9382774      0.97112015     56.555265    
      4950   0.78473017     2.0197205      0.97057031     56.382499    
      5000   0.77433732     2.0773612      0.97038614     56.830685    
Loop time of 15.5086 on 1 procs for 5000 steps with 5120 atoms

Performance: 111422.302 tau/day, 322.402 timesteps/s, 1.651 Matom-step/s
99.6% CPU use with 1 MPI tasks x 1 OpenMP threads

MPI task timing breakdown:
Section |  min time  |  avg time  |  max time  |%varavg| %total
---------------------------------------------------------------
Pair    | 12.44      | 12.44      | 12.44      |   0.0 | 80.21
Neigh   | 1.4695     | 1.4695     | 1.4695     |   0.0 |  9.48
Comm    | 0.101      | 0.101      | 0.101      |   0.0 |  0.65
Output  | 0.0032549  | 0.0032549  | 0.0032549  |   0.0 |  0.02
Modify  | 1.4553     | 1.4553     | 1.4553     |   0.0 |  9.38
Other   |            | 0.03955    |            |       |  0.26

Nlocal:           5120 ave        5120 max        5120 min
Histogram: 1 0 0 0 0 0 0 0 0 0
Nghost:           7582 ave        7582 max        7582 min
Histogram: 1 0 0 0 0 0 0 0 0 0
Neighs:         321338 ave      321338 max      321338 min
Histogram: 1 0 0 0 0 0 0 0 0 0

Total # of neighbors = 321338
Ave neighs/atom = 62.761328
Neighbor list builds = 247
Dangerous builds = 0
Total wall time: 0:00:15
