LAMMPS (4 Jul 2026 - Development - patch_4Jul2026-848-gd03be1b44b)
  using 1 OpenMP thread(s) per MPI task
units       lj
dimension   3
boundary    p p p
atom_style  atomic

# truncated and shifted LJ potential
pair_style  lj/cut 2.5
pair_modify shift yes
read_data   data.halfhalf
Reading data file ...
  orthogonal box = (0 0 0) to (12.815164 12.815164 34)
  1 by 1 by 4 MPI processor grid
  reading atoms ...
  5120 atoms
  reading velocities ...
  5120 velocities
  read_data CPU = 0.011 seconds
pair_coeff  1 1 1.0 1.0 2.5
mass        1 1.0

# simulation parameters
neighbor        0.6 bin
timestep        0.004
run_style       verlet

velocity all create 0.8 1 mom yes rot yes loop geom
fix ensemble all npt temp 0.8 0.8 4.0 z 2.185 2.185 8.0
fix 100 all momentum 100 linear 1 1 1

# harmonic rho_k bias-field
#                 nx ny nz K     a
fix bias all rhok 16 0  0  4.0   26.00

# output                                U_bias rho_k_RE  rho_k_IM |rho_k|
thermo_style custom step temp pzz pe lz f_bias f_bias[1] f_bias[2] f_bias[3]
thermo 50
# dump dumpXYZ all xyz 500 traj.xyz

# NOTE: run reduced for demonstration purposes
# run 50000
run 5000

CITE-CITE-CITE-CITE-CITE-CITE-CITE-CITE-CITE-CITE-CITE-CITE-CITE

Your simulation uses code contributions which should be cited:

- Bias on the collective density field (fix rhok): https://doi.org/10.1063/1.4818747

@Article{pedersen_jcp139_104102_2013,
title = {Direct Calculation of the Solid-Liquid {G}ibbs Free Energy Difference in a Single Equilibrium Simulation},
volume = {139},
number = {10},
url = {https://aip.scitation.org/doi/10.1063/1.4818747},
doi = {10.1063/1.4818747},
urldate = {2017-10-03},
journal = {J.~Chem.\ Phys.},
author = {Pedersen, Ulf R.},
year = {2013},
pages = {104102}
}

CITE-CITE-CITE-CITE-CITE-CITE-CITE-CITE-CITE-CITE-CITE-CITE-CITE

Generated 0 of 0 mixed pair_coeff terms from geometric mixing rule
Neighbor list info ...
  update: every = 1 steps, delay = 0 steps, check = yes
  max neighbors/atom: 2000, page size: 100000
  master list distance cutoff = 3.1
  ghost atom cutoff = 3.1
  binsize = 1.55, bins = 9 9 22
  1 neighbor lists, perpetual/occasional/extra = 1 0 0
  (1) pair lj/cut, perpetual
      attributes: half, newton on
      pair build: half/bin/atomonly/newton
      stencil: half/bin/3d
      bin: standard
Per MPI rank memory allocation (min/avg/max) = 3.228 | 3.231 | 3.232 Mbytes
   Step          Temp           Pzz           PotEng           Lz           f_bias       f_bias[1]      f_bias[2]      f_bias[3]   
         0   0.8            5.2763803     -4.9234406      34             198.0912       35.951828      0.15575876     35.952166    
        50   1.0536034      3.914604      -5.2713871      34.025735      0.49485888     26.496111      0.26361512     26.497423    
       100   1.0870172      3.5420031     -5.3342619      34.099573      2.5178615      27.121849      0.096446333    27.122021    
       150   1.101684       3.5797704     -5.3750448      34.210298      0.73110505     26.604548     -0.05694598     26.604609    
       200   1.0978683      3.7164254     -5.3949258      34.351198      0.66996983     26.57201       0.5997976      26.578779    
       250   1.0964227      3.5142855     -5.4205997      34.508056      1.3590964      26.81595      -0.67112739     26.824347    
       300   1.0693088      3.6680519     -5.4071815      34.662374      0.15929261     26.269048     -0.83188809     26.282217    
       350   1.0337649      3.7992688     -5.380091       34.810807      0.32515802     25.558966     -1.3910018      25.596789    
       400   1.0024209      3.9833166     -5.3589855      34.957469      0.23984988     26.346229      0.061865398    26.346302    
       450   0.96018853     4.1162351     -5.3234398      35.110792      4.8168637      27.544687     -0.63095183     27.551912    
       500   0.9304833      3.9544857     -5.3062984      35.27389       4.3112374      27.467401     -0.20983891     27.468203    
       550   0.92097401     3.8479356     -5.3188153      35.440854      2.8781606      27.190386     -0.70854696     27.199617    
       600   0.90795372     3.3999056     -5.325078       35.60475       5.2636291      27.573533     -1.6404268      27.622287    
       650   0.89779721     3.2105555     -5.3311923      35.755073      0.5964467      26.523043     -1.1061422      26.546098    
       700   0.8995094      2.8194664     -5.3533306      35.888698      2.2084042      26.955313     -2.2710029      27.05081     
       750   0.90060215     2.3480679     -5.3702843      36.000404      1.0773018      26.573973     -2.9200854      26.733928    
       800   0.90539913     1.9512561     -5.3899343      36.084747      2.6305116      27.011525     -2.7071668      27.146846    
       850   0.8875747      1.805029      -5.372758       36.142713      0.074201413    25.952776     -3.5364591      26.192615    
       900   0.88332799     1.6189091     -5.3746562      36.175911      0.20689949     26.117821     -3.2692462      26.321636    
       950   0.88496407     1.3456339     -5.3840409      36.184607      0.79199754     26.370181     -3.7057161      26.629284    
      1000   0.87804203     1.3705861     -5.3793622      36.168226      1.3355158      26.559521     -3.7083884      26.817165    
      1050   0.87965136     1.2021579     -5.3862429      36.129416      0.083642244    25.651581     -5.3546559      26.204502    
      1100   0.85844185     1.3856054     -5.3581208      36.069863      0.16670657     25.853915     -4.7614405      26.28871     
      1150   0.86783693     1.299265      -5.3751411      35.994797      0.0074607327   25.24461      -5.961325       25.938923    
      1200   0.86008701     1.3105076     -5.3659022      35.907412      0.096933647    24.978757     -6.3766971      25.779848    
      1250   0.86103827     1.4193567     -5.3690309      35.813049      0.030276222    24.853111     -7.2069471      25.876963    
      1300   0.86478042     1.5156463     -5.3761259      35.718322      0.73068168     24.087659     -8.0448408      25.395566    
      1350   0.87606851     1.5006791     -5.3943667      35.626359      0.20952232     24.511032     -7.6474387      25.676332    
      1400   0.87855851     1.6171554     -5.3996648      35.539348      0.40497716     24.973045     -8.7148651      26.449987    
      1450   0.87603846     1.8798859     -5.3974162      35.459839      0.0086504206   24.571753     -8.2953871      25.934234    
      1500   0.89058302     1.8337827     -5.4215252      35.389292      0.42296772     25.14716      -8.2307507      26.459874    
      1550   0.89298922     2.074292      -5.4277051      35.32717       0.13436118     24.510656     -7.8623731      25.740808    
      1600   0.8913093      2.2823495     -5.4285972      35.276254      1.6473702      25.864318     -7.4198657      26.907571    
      1650   0.88133757     2.4655751     -5.4172002      35.240716      0.0016512281   25.150869     -6.7028929      26.028734    
      1700   0.88442843     2.5798746     -5.4272216      35.219786      2.0476273      26.007677     -7.2965791      27.011837    
      1750   0.86994535     2.5476254     -5.411343       35.213455      1.2525987      25.602088     -7.8937752      26.791391    
      1800   0.86877471     2.6849953     -5.4166568      35.220072      1.4557697      25.926795     -6.9923956      26.853162    
      1850   0.86309851     2.6450077     -5.4162531      35.238968      2.3028753      26.360458     -6.1706015      27.073051    
      1900   0.87166291     2.4321464     -5.437387       35.267229      0.9524441      26.106479     -5.5509094      26.690088    
      1950   0.86366616     2.4033197     -5.4338431      35.298303      0.28794896     25.699624     -5.9501418      26.37944     
      2000   0.85475302     2.3246061     -5.4289361      35.33063       0.062677766    25.295746     -5.1914458      25.822972    
      2050   0.84989148     2.0821906     -5.4300233      35.360803      1.1961027      26.377522     -4.5867134      26.773338    
      2100   0.85723604     2.0208063     -5.4480524      35.383392      0.007528235    25.690168     -4.3828463      26.061352    
      2150   0.85037496     1.816368      -5.444555       35.396356      0.72273088     26.192147     -4.6467112      26.601137    
      2200   0.84587101     1.8013007     -5.4434897      35.397706      0.45460741     26.077973     -4.5780284      26.476764    
      2250   0.85685805     1.7342846     -5.4650075      35.388063      0.22561756     25.350251     -4.0015415      25.66413     
      2300   0.85435556     1.5661984     -5.4657053      35.366536      0.11729144     25.299882     -4.8354797      25.757831    
      2350   0.84075487     1.6258266     -5.4489438      35.33117       0.0053687996   25.603513     -4.2152858      25.948189    
      2400   0.85024028     1.5629982     -5.4662607      35.284443      0.10338062     25.777582     -4.836366       26.227355    
      2450   0.8354363      1.862581      -5.4464958      35.228306      0.5702005      25.103487     -4.2819097      25.466052    
      2500   0.83363402     1.8522828     -5.4455718      35.169258      0.45470493     25.992188     -5.0426071      26.476815    
      2550   0.84337358     1.83431       -5.4620169      35.10821       1.7594962e-05  25.504929     -5.0343211      25.997034    
      2600   0.8452832      1.8127893     -5.4666187      35.045307      0.046872017    25.428058     -6.1153807      26.153088    
      2650   0.85523424     1.8697605     -5.4833197      34.981876      0.18001457     24.962594     -6.1121422      25.699988    
      2700   0.85206691     2.0418755     -5.480234       34.921498      0.10307357     25.2411       -7.1234343      26.227017    
      2750   0.85768259     2.1461358     -5.4905306      34.868644      0.023986848    25.033828     -7.4171558      26.109514    
      2800   0.85576804     2.1800007     -5.4901132      34.824831      0.048000487    24.824871     -7.1898479      25.84508     
      2850   0.85871598     2.3208542     -5.4976693      34.789636      0.22656789     25.306203     -7.294611       26.336577    
      2900   0.85555811     2.3143752     -5.496737       34.763755      0.51778965     25.652512     -6.6832649      26.508817    
      2950   0.84945769     2.4611059     -5.4919615      34.747252      0.18712299     25.603753     -6.0371416      26.305878    
      3000   0.84617154     2.4755902     -5.492239       34.741755      0.014302198    25.462276     -4.8251741      25.915436    
      3050   0.84364287     2.4168722     -5.4944086      34.745903      0.022254461    25.715952     -4.4929051      26.105486    
      3100   0.85898951     2.4335275     -5.5239095      34.757456      0.0047412039   25.725707     -3.4144608      25.951311    
      3150   0.83380066     2.4967127     -5.4931062      34.775477      0.18421971     25.442859     -3.6015593      25.696504    
      3200   0.83589788     2.4230253     -5.5032249      34.797256      0.015078544    25.682029     -3.4533745      25.913171    
      3250   0.82838113     2.2620517     -5.4988468      34.819216      0.17366886     26.063353     -3.480183       26.294677    
      3300   0.82341532     2.1555747     -5.4979452      34.83892       0.0017228718   25.665362     -3.9703709      25.97065     
      3350   0.84274756     1.9465205     -5.5331156      34.854686      7.9103215e-07  25.678817     -4.0700908      25.999371    
      3400   0.82996644     2.0002172     -5.5195915      34.865047      0.0059853997   25.679859     -4.4036925      26.054706    
      3450   0.81766351     2.001422      -5.5062338      34.868596      0.0026367758   25.406013     -5.3523589      25.96369     
      3500   0.83152001     1.8360217     -5.5315687      34.864431      0.0016868627   25.578254     -4.8232685      26.029042    
      3550   0.81588147     1.9193939     -5.5120338      34.852245      0.10192701     25.721564     -5.1177292      26.225751    
      3600   0.81753463     1.8690514     -5.517929       34.834327      0.001370281    25.467422     -5.363973       26.026175    
      3650   0.81310488     1.902376      -5.5143305      34.80945       0.14406804     25.263293     -4.8868881      25.731608    
      3700   0.82402263     1.8729733     -5.5331618      34.77946       0.014621737    25.349199     -6.1539922      26.085504    
      3750   0.82543588     1.9213544     -5.537546       34.746246      0.070912112    24.883808     -6.8585751      25.811702    
      3800   0.8238487      2.1423864     -5.537179       34.71125       0.17033123     24.966393     -6.1310008      25.708169    
      3850   0.81690625     2.0562087     -5.5287206      34.676979      0.015468082    25.394958     -5.973015       26.087943    
      3900   0.81481861     2.1016061     -5.5276131      34.643506      0.0032342345   25.301405     -6.1588632      26.040213    
      3950   0.82007283     2.1026518     -5.5375835      34.611898      0.25875903     24.816103     -6.4487459      25.640306    
      4000   0.81447533     2.205493      -5.5313194      34.582091      0.1281674      25.386106     -6.6912907      26.253148    
      4050   0.83036822     2.2328671     -5.5573546      34.556081      0.010211106    25.49573      -5.4487088      26.071453    
      4100   0.81847059     2.2355778     -5.542225       34.534959      0.50045372     24.85342      -5.704907       25.499773    
      4150   0.82356449     2.2769026     -5.5527734      34.517227      0.82561602     25.038437     -4.0099111      25.357499    
      4200   0.82527059     2.2156725     -5.5583202      34.502693      6.6812701e-07  25.789519     -3.2970665      25.999422    
      4250   0.79887532     2.3500159     -5.5219706      34.49205       0.021066977    25.892958     -3.3018418      26.102633    
      4300   0.8174292      2.3891843     -5.5534529      34.486103      0.020717625    25.623179     -3.7643844      25.898222    
      4350   0.81591238     2.3257624     -5.5551025      34.485498      0.083482374    26.12198      -2.0755355      26.204307    
      4400   0.81431236     2.2908811     -5.5568954      34.488253      0.10721185     26.129733     -2.3087242      26.23153     
      4450   0.81012969     2.308465      -5.555114       34.492924      0.8895726      26.555135     -2.4391752      26.666923    
      4500   0.80722397     2.2290645     -5.5548544      34.498709      0.021708529    26.037621     -1.8629768      26.104184    
      4550   0.80734538     2.0308454     -5.5592741      34.503772      0.54642943     26.389169     -2.6580739      26.522699    
      4600   0.80518588     2.0445714     -5.5597137      34.50432       0.00014848134  25.859633     -2.6136953      25.991384    
      4650   0.80817004     1.9816814     -5.5675681      34.499739      0.095400348    26.107239     -2.4117922      26.218404    
      4700   0.8037675      1.9660709     -5.5641725      34.490995      0.71019108     25.340988     -1.789608       25.404101    
      4750   0.80856468     1.9841749     -5.5739676      34.478612      0.046170369    25.782513     -1.8396532      25.848062    
      4800   0.80008355     2.052688      -5.5636611      34.462798      0.29134804     25.517329     -2.2725815      25.618327    
      4850   0.80057315     2.1442725     -5.5667069      34.445917      0.70913732     25.165058     -3.4800388      25.404543    
      4900   0.79914484     2.1584939     -5.5665464      34.429788      0.018237735    25.778145     -4.0573396      26.095493    
      4950   0.80774816     2.1395119     -5.5815652      34.413359      0.092256354    25.516113     -3.7156172      25.785225    
      5000   0.80160142     2.0446623     -5.574302       34.395717      0.0063242933   25.387614     -5.3430447      25.943767    
Loop time of 4.33952 on 4 procs for 5000 steps with 5120 atoms

Performance: 398200.712 tau/day, 1152.201 timesteps/s, 5.899 Matom-step/s
98.4% CPU use with 4 MPI tasks x 1 OpenMP threads

MPI task timing breakdown:
Section |  min time  |  avg time  |  max time  |%varavg| %total
---------------------------------------------------------------
Pair    | 2.2874     | 2.7457     | 3.2984     |  24.2 | 63.27
Neigh   | 0.35251    | 0.40699    | 0.47968    |   7.8 |  9.38
Comm    | 0.10368    | 0.72698    | 1.2369     |  52.7 | 16.75
Output  | 0.0013413  | 0.0014179  | 0.0016316  |   0.3 |  0.03
Modify  | 0.43813    | 0.43952    | 0.44104    |   0.2 | 10.13
Other   |            | 0.01895    |            |       |  0.44

Nlocal:           1280 ave        1385 max        1211 min
Histogram: 2 0 0 0 1 0 0 0 0 1
Nghost:        3488.75 ave        3531 max        3411 min
Histogram: 1 0 0 0 0 0 1 0 0 2
Neighs:          73842 ave       86262 max       64876 min
Histogram: 2 0 0 0 0 1 0 0 0 1

Total # of neighbors = 295368
Ave neighs/atom = 57.689062
Neighbor list builds = 281
Dangerous builds = 0
Total wall time: 0:00:04
