# created by fftool

units real
boundary p p p

atom_style full
bond_style harmonic
angle_style harmonic
special_bonds lj/coul 0.0 0.0 0.5

read_data data.0.lmp
# read_restart restart.*.lmp
# reset_timestep 0

pair_style hybrid lj/cut/coul/long 10.0 10.0 lj/cut/coul/long/soft 1 0.5 10.0 10.0 10.0
pair_modify tail yes
kspace_style pppm 1.0e-4

pair_coeff    1    1  lj/cut/coul/long    0.0660   3.5000  # C-CF C-CF
pair_coeff    1    2  lj/cut/coul/long    0.0445   2.9580  # C-CF H-D
pair_coeff    1    3  lj/cut/coul/long    0.0591   3.2133  # C-CF FD-
pair_coeff    1    4  lj/cut/coul/long    0.0000   1.8708  # C-CF Hw
pair_coeff    1    5  lj/cut/coul/long    0.1013   3.3286  # C-CF Ow
pair_coeff    2    2  lj/cut/coul/long    0.0300   2.5000  # H-D H-D
pair_coeff    2    3  lj/cut/coul/long    0.0399   2.7157  # H-D FD-
pair_coeff    2    4  lj/cut/coul/long/soft    0.0000   1.5811  1.0  # H-D Hw
pair_coeff    2    5  lj/cut/coul/long/soft    0.0683   2.8131  1.0  # H-D Ow
pair_coeff    3    3  lj/cut/coul/long    0.0530   2.9500  # FD- FD-
pair_coeff    3    4  lj/cut/coul/long/soft    0.0000   1.7176  0.0  # FD- Hw
pair_coeff    3    5  lj/cut/coul/long/soft    0.0908   3.0559  0.0  # FD- Ow
pair_coeff    4    4  lj/cut/coul/long    0.0000   1.0000  # Hw Hw
pair_coeff    4    5  lj/cut/coul/long    0.0000   1.7792  # Hw Ow
pair_coeff    5    5  lj/cut/coul/long    0.1554   3.1655  # Ow Ow

variable TK equal 300.0
variable PBAR equal 1.0

neighbor 2.0 bin

timestep 1.0

velocity all create ${TK} 12345

fix SHAKE all shake 0.0001 20 0 b 3 a 4

fix NPT all npt temp ${TK} ${TK} 100 iso ${PBAR} ${PBAR} 500

thermo_style custom step etotal ke pe evdwl ecoul elong temp press density
thermo 1000

run 200000

reset_timestep 0

variable lambda equal ramp(0.0,1.0)
variable minusl equal 1.0-v_lambda
variable qC equal  0.48*v_lambda-0.24*(1.0-v_lambda)
variable qH equal  0.06*(1.0-v_lambda)
variable qF equal -0.12*v_lambda

fix ADAPT all adapt/fep 100000 &
    pair lj/cut/coul/long/soft lambda 2 4*5 v_minusl &
    pair lj/cut/coul/long/soft lambda 3 4*5 v_lambda &
    atom charge 1 v_qC &
    atom charge 2 v_qH &
    atom charge 3 v_qF &
    after yes

thermo_style custom step etotal ke pe evdwl ecoul elong temp press density &
    v_lambda v_qC v_qH v_qF

variable dlambda equal  0.05
variable minusdl equal -0.05
variable dqC equal  (0.48+0.24)*v_dlambda
variable dqH equal -0.06*v_dlambda
variable dqF equal -0.12*v_dlambda

compute FEP all fep ${TK} &
    pair lj/cut/coul/long/soft lambda 2 4*5 v_minusdl &
    pair lj/cut/coul/long/soft lambda 3 4*5 v_dlambda &
    atom charge 1 v_dqC &
    atom charge 2 v_dqH &
    atom charge 3 v_dqF &
    volume yes

fix FEP all ave/time 20 4000 100000 c_FEP[*] file fep01.fep

dump TRAJ all custom 20000 dump.lammpstrj id mol type element xu yu zu
dump_modify TRAJ element C H F H O

run 2000000

# write_restart restart.*.lmp
write_data data.*.lmp
