# 3d Lennard-Jones melt

units		lj
atom_style	atomic

lattice		fcc 0.8442
region		box block 0 10 0 10 0 10
create_box	1 box
create_atoms	1 box
mass		1 1.0

velocity	all create 1.44 87287 loop geom

pair_style	lj/cut 5.0
pair_coeff	1 1 1.0 1.0

neighbor	0.3 bin
neigh_modify	every 1 delay 0 check no

fix		1 all nve

run_style	respa 3 2 2 inner 1 1.5 2.0 middle 2 2.7 3.3 outer 3
timestep	0.004

#dump		id all atom 50 dump.melt

#dump		2 all image 25 image.*.jpg type type &
#		axes yes 0.8 0.02 view 60 -30
#dump_modify	2 pad 3

#dump		3 all movie 25 movie.mpg type type &
#		axes yes 0.8 0.02 view 60 -30
#dump_modify	3 pad 3

thermo		10
run		50
