# Point dipoles in a 2d box

units		lj
atom_style  full	

read_data data.NaCl

velocity	all set 0.0 0.0 0.0 mom no

pair_style	zero 1.0
pair_coeff	* * 

neighbor	1.0 bin
neigh_modify	delay 0

# using the fmm solver with a tolerance in energy of 10^-3
fix		1 all scafacos fmm tolerance energy 0.001

timestep	0.005

run		100
