 W 
 1.0000000000000000
     2.5123845999742804    0.0000000000000000    0.0000000000000000
     0.0000000000000000    2.5123845999742804    0.0000000000000000
     0.0000000000000000    0.0000000000000000   50.0990767997942470
   W
   9
Cartesian
  0.0000000000000000  0.0000000000000000 15.0000000000000018
  0.0000000000000000  0.0000000000000000 17.5123845999742827
  0.0000000000000000  0.0000000000000000 20.0247691999485617
  0.0000000000000000  0.0000000000000000 22.5371537999228408
  0.0000000000000000  0.0000000000000000 25.0495383998971235
  0.0000000000000000  0.0000000000000000 27.5619229998714061
  0.0000000000000000  0.0000000000000000 30.0743075998456817
  0.0000000000000000  0.0000000000000000 32.5866921998199643
  0.0000000000000000  0.0000000000000000 35.0990767997942470
