 W 
 1.0000000000000000
     3.1654062429393064    0.0000000000000000    0.0000000000000000
     0.0000000000000000    3.1654062429393064    0.0000000000000000
     0.0000000000000000    0.0000000000000000    3.1654062429393064
   W
   2
Direct
  0.0000000000000000  0.0000000000000000  0.0000000000000000
  0.5 0.5 0.5

  0.0000000000000000  0.0000000000000000  0.0000000000000000
  1.5827031214696532  1.5827031214696532  1.5827031214696532
