 W 
 1.0000000000000000
     8.9531208783704628    0.0000000000000000    0.0000000000000000
     2.2382802195926157    3.8768150619108339    0.0000000000000000
     0.0000000000000000    0.0000000000000000   45.5341592448720149
  W
  18
Cartesian
  0.0000000000000000  0.0000000000000000 15.0000000000000000
  6.7148406587778462  1.2922716873036106 15.9137740732277653
  4.4765604391852314  2.5845433746072226 16.8275481464555305
 11.1914010979630767  3.8768150619108330 17.7413222196832976
  6.7148406587778471  1.2922716873036111 18.6550962929110611
  4.4765604391852305  2.5845433746072222 19.5688703661388281
  2.2382802195926152  3.8768150619108330 20.4826444393665916
  6.7148406587778453  1.2922716873036111 21.3964185125943587
  4.4765604391852305  2.5845433746072222 22.3101925858221222
  2.2382802195926148  3.8768150619108321 23.2239666590498928
  6.7148406587778453  1.2922716873036102 24.1377407322776563
  4.4765604391852305  2.5845433746072195 25.0515148055054233
  2.2382802195926148  3.8768150619108321 25.9652888787331833
  6.7148406587778444  1.2922716873036084 26.8790629519609539
  4.4765604391852314  2.5845433746072204 27.7928370251887173
  2.2382802195926139  3.8768150619108304 28.7066110984164808
  6.7148406587778453  1.2922716873036102 29.6203851716442479
  4.4765604391852269  2.5845433746072204 30.5341592448720149
