 W 
 1.0000000000000000
     2.8200563642280549    0.0000000000000000    0.0000000000000000
     0.0000000000000000    2.8200563642280549    0.0000000000000000
     0.0000000000000000    0.0000000000000000    3.9881619569478763
   W
   4
Cartesian
  0.0000000000000000  0.0000000000000000  0.0000000000000000
  1.4100281821140275  0.0000000000000000  0.9970404892369691
  1.4100281821140275  1.4100281821140275  1.9940809784739382
  0.0000000000000000  1.4100281821140275  2.9911214677109070
