 W 
 2.0000000000000000
     2.2382802195926152    0.0000000000000000    0.0000000000000000
     0.0000000000000000    2.2382802195926152    0.0000000000000000
     0.0000000000000000    0.0000000000000000   56.9059530649841037
  W
  18
Cartesian
  0.0000000000000000  0.0000000000000000 15.0000000000000000
  1.1191401097963076  1.1191401097963076 16.5827031214696525
  0.0000000000000000  0.0000000000000000 18.1654062429393051
  1.1191401097963076  1.1191401097963076 19.7481093644089611
  0.0000000000000000  0.0000000000000000 21.3308124858786137
  1.1191401097963076  1.1191401097963076 22.9135156073482662
  0.0000000000000000  0.0000000000000000 24.4962187288179187
  1.1191401097963076  1.1191401097963076 26.0789218502875713
  0.0000000000000000  0.0000000000000000 27.6616249717572273
  1.1191401097963076  1.1191401097963076 29.2443280932268763
  0.0000000000000000  0.0000000000000000 30.8270312146965324
  1.1191401097963076  1.1191401097963076 32.4097343361661814
  0.0000000000000000  0.0000000000000000 33.9924374576358375
  1.1191401097963076  1.1191401097963076 35.5751405791054935
  0.0000000000000000  0.0000000000000000 37.1578437005751425
  1.1191401097963076  1.1191401097963076 38.7405468220447986
  0.0000000000000000  0.0000000000000000 40.3232499435144547
  1.1191401097963076  1.1191401097963076 41.9059530649841037
