LAMMPS (4 Jul 2026 - Development - c229a2a242-modified)
# bcc iron in an inertial spin dynamics simulation (NVT)
#
# fix nvt/tspin drives the lattice and the spin degrees of freedom with two
# independent Nose-Hoover chains held at a common target temperature.  The
# lattice keyword and the spin keyword select which of the two sectors is
# integrated and thermostatted.
# fix langevin/tspin can be used instead for a stochastic bath.

units           metal
dimension       3
boundary        p p p
atom_style      spin

lattice         bcc 2.8665
Lattice spacing in x,y,z = 2.8665 2.8665 2.8665
region          box block 0.0 4.0 0.0 4.0 0.0 4.0
create_box      1 box
Created orthogonal box = (0 0 0) to (11.466 11.466 11.466)
  1 by 1 by 1 MPI processor grid
create_atoms    1 box
Created 128 atoms
  using lattice units in orthogonal box = (0 0 0) to (11.466 11.466 11.466)
  create_atoms CPU = 0.000 seconds

mass            1 55.845
set             group all spin/atom/random 31 2.2
Setting atom values ...
  128 settings made for spin/atom/random

pair_style      eam/fs
pair_coeff      * * Fe_mm.eam.fs Fe
Reading eam/fs potential file Fe_mm.eam.fs with DATE: 2007-06-11

neighbor        0.1 bin
neigh_modify    every 10 check yes delay 20

# longitudinal potential on the spin modulus, k in eV/muB^2

fix             pin all spring/tspin 1.0 2.2
fix_modify      pin energy yes

fix             1 all nvt/tspin temp 300.0 300.0 0.05 spinmass 0.0075

velocity        all create 300.0 4928 mom yes
velocity/tspin  all create 300.0 4929

timestep        0.0001

compute         out_mag all spin
compute         ske all ke/tspin
variable        etot equal econserve+c_ske

variable        magnorm equal c_out_mag[4]

thermo          500
thermo_style    custom step time temp v_magnorm pe c_ske v_etot
thermo_modify   format float %20.15g

run             20000
Neighbor list info ...
  update: every = 10 steps, delay = 20 steps, check = yes
  max neighbors/atom: 2000, page size: 100000
  master list distance cutoff = 5.4
  ghost atom cutoff = 5.4
  binsize = 2.7, bins = 5 5 5
  1 neighbor lists, perpetual/occasional/extra = 1 0 0
  (1) pair eam/fs, perpetual
      attributes: half, newton on
      pair build: half/bin/atomonly/newton
      stencil: half/bin/3d
      bin: standard
Per MPI rank memory allocation (min/avg/max) = 5.478 | 5.478 | 5.478 Mbytes
   Step          Time           Temp        v_magnorm        PotEng         c_ske          v_etot
         0                     0                  300    0.155361980793619    -527.557932950689          4.963589568    -517.669531858189
       500                  0.05     100.247501280844    0.121374110199838    -522.206851619064     3.86999946506393    -517.669421392403
      1000                   0.1     192.994614810786   0.0363313275437135    -523.698880441572     5.41526400637358    -517.669495213991
      1500                  0.15      208.97022513421   0.0592880977083322    -521.816446755097     4.81307302850905    -517.669433167851
      2000                   0.2     245.345266311013   0.0514716342211248    -521.595331868459     5.25615751572712    -517.669462560141
      2500                  0.25     308.861194381948   0.0971010069594402    -521.189955368127      4.5045953127836    -517.669461008208
      3000                   0.3     354.290246105372    0.131940215660989    -520.961494474834     4.25820259943542    -517.669448598793
      3500                  0.35     345.662198072796     0.13057375869072    -521.337312874883     5.87618666055211    -517.669467424798
      4000                   0.4     282.919252152856   0.0749773991608945    -520.676278747042     5.02436751780586    -517.669435039385
      4500                  0.45     267.478575687836   0.0476495974378184      -521.2407851935     4.94231615571833    -517.669468891838
      5000                   0.5     281.016687788183   0.0976692316390308    -521.227567429808     4.69333795425371    -517.669448967575
      5500                  0.55     352.195576318178   0.0771255627955352    -522.184724279018     4.99286343284199    -517.669459218053
      6000                   0.6     256.377463785817   0.0562352256838601    -520.713828440341     5.06058163729654    -517.669463029981
      6500                  0.65     332.322432169362    0.131200872247145    -521.110226804032     4.70491413835281    -517.669439706159
      7000                   0.7     316.823441616368    0.133599985577952    -521.492497375917     5.35000236592282    -517.669473917803
      7500                  0.75        214.008415578   0.0911436496522465    -519.797478090858     4.58273355961672    -517.669431567174
      8000                   0.8     329.813219548916   0.0635580239811162     -522.20050415368     5.27608303178704    -517.669470631836
      8500                  0.85      287.06674726146   0.0534347141774846    -521.240005404049     5.17141598770072    -517.669452559628
      9000                   0.9      345.94457869965   0.0965063232621312    -521.365125699546      4.8295414350281    -517.669448669492
      9500                  0.95     260.892883439447    0.100356624632328    -520.803550174548     4.95242980260926    -517.669467662952
     10000                     1     308.250354174216    0.082435527084796    -521.617201402471     4.59460993079972    -517.669445003236
     10500                  1.05     212.340493604155   0.0540480533294296    -521.104813532568     5.29971516980621    -517.669462594629
     11000                   1.1     326.562477329736    0.068524840530888    -522.217194155804     5.30337793183052    -517.669453974338
     11500                  1.15     271.625823222393   0.0942403312388334    -521.155886792385     5.04277687274276    -517.669451974177
     12000                   1.2     346.288734407921   0.0603661454186475    -521.730500457685     4.97997355995065    -517.669467482073
     12500                  1.25     264.174155682627   0.0604467408883025    -520.123446482611     4.52801326625956     -517.66943857792
     13000                   1.3     315.990446971681     0.13798583980221    -521.797842639531     5.49016531981863    -517.669470095886
     13500                  1.35     263.598212522958    0.116465169619192     -521.01383519288      4.9769325676784    -517.669439208263
     14000                   1.4     262.138979780617   0.0620400842896054    -521.788582202612     4.71704394123169    -517.669470055505
     14500                  1.45     293.358968626032   0.0558262954276079    -522.102819957691     4.30724680366444    -517.669454076332
     15000                   1.5     303.840270184318   0.0622429565534583    -521.686785213624     5.26037296662408    -517.669461174758
     15500                  1.55     255.125467271219    0.110431378332019    -519.991721317414     5.26324062342095    -517.669447252201
     16000                   1.6     338.719595115365   0.0766088096250865    -521.554816261034     4.94058690469832    -517.669452476085
     16500                  1.65      287.87301596091   0.0637320223684031    -521.114908460309      4.9238505257009     -517.66946241913
     17000                   1.7     318.881390253423   0.0752991475102313    -521.436315143947     4.72044684313676    -517.669451765204
     17500                  1.75     296.438762182417   0.0872021458288605    -521.292998272936     5.80569729037612    -517.669454974181
     18000                   1.8     320.758506987471   0.0488308955147639    -521.617712179383     5.67714114945206    -517.669455889757
     18500                  1.85     265.651484788569   0.0509346616558661    -520.786627602642      4.6790077589497    -517.669446604811
     19000                   1.9     323.952607762293   0.0646855754587443    -521.856580302154     4.98933237253465    -517.669469096221
     19500                  1.95     254.340227219964   0.0549878450704126    -519.991535276095     4.86236569896309    -517.669437133772
     20000                     2     369.669172170419   0.0711378194160667    -521.476101128658     5.58514090322099    -517.669465876329
Loop time of 1.03595 on 1 procs for 20000 steps with 128 atoms

Performance: 166.804 ns/day, 0.144 hours/ns, 19306.006 timesteps/s, 2.471 Matom-step/s
98.1% CPU use with 1 MPI tasks x no OpenMP threads

MPI task timing breakdown:
Section |  min time  |  avg time  |  max time  |%varavg| %total
---------------------------------------------------------------
Pair    | 0.76957    | 0.76957    | 0.76957    |   0.0 | 74.29
Neigh   | 0.021447   | 0.021447   | 0.021447   |   0.0 |  2.07
Comm    | 0.1551     | 0.1551     | 0.1551     |   0.0 | 14.97
Output  | 0.00049208 | 0.00049208 | 0.00049208 |   0.0 |  0.05
Modify  | 0.065784   | 0.065784   | 0.065784   |   0.0 |  6.35
Other   |            | 0.02355    |            |       |  2.27

Nlocal:            128 ave         128 max         128 min
Histogram: 1 0 0 0 0 0 0 0 0 0
Nghost:            727 ave         727 max         727 min
Histogram: 1 0 0 0 0 0 0 0 0 0
Neighs:           3712 ave        3712 max        3712 min
Histogram: 1 0 0 0 0 0 0 0 0 0

Total # of neighbors = 3712
Ave neighs/atom = 29
Neighbor list builds = 272
Dangerous builds = 0
Total wall time: 0:00:01
