LAMMPS (4 Jul 2026 - Development - c817842e5b)
# bcc iron in an inertial spin dynamics simulation (NVT)
#
# fix nvt/tspin drives the lattice and the spin degrees of freedom with two
# independent Nose-Hoover chains held at a common target temperature.  The
# lattice keyword and the spin keyword select which of the two sectors is
# integrated and thermostatted.
# fix langevin/tspin can be used instead for a stochastic bath.

units           metal
dimension       3
boundary        p p p
atom_style      spin

lattice         bcc 2.8665
Lattice spacing in x,y,z = 2.8665 2.8665 2.8665
region          box block 0.0 4.0 0.0 4.0 0.0 4.0
create_box      1 box
Created orthogonal box = (0 0 0) to (11.466 11.466 11.466)
  1 by 2 by 2 MPI processor grid
create_atoms    1 box
Created 128 atoms
  using lattice units in orthogonal box = (0 0 0) to (11.466 11.466 11.466)
  create_atoms CPU = 0.000 seconds

mass            1 55.845
set             group all spin/atom/random 31 2.2
Setting atom values ...
  128 settings made for spin/atom/random

pair_style      eam/fs
pair_coeff      * * Fe_mm.eam.fs Fe
Reading eam/fs potential file Fe_mm.eam.fs with DATE: 2007-06-11

neighbor        0.1 bin
neigh_modify    every 10 check yes delay 20

# longitudinal potential on the spin modulus, k in eV/muB^2

fix             pin all spring/tspin 1.0 2.2
fix_modify      pin energy yes

fix             1 all nvt/tspin temp 300.0 300.0 0.05 spinmass 0.0075

velocity        all create 300.0 4928 mom yes
velocity/tspin  all create 300.0 4929

timestep        0.0001

compute         out_mag all spin
compute         ske all ke/tspin
variable        etot equal econserve+c_ske

variable        magnorm equal c_out_mag[4]

thermo          500
thermo_style    custom step time temp v_magnorm pe c_ske v_etot
thermo_modify   format float %20.15g

run             20000
Neighbor list info ...
  update: every = 10 steps, delay = 20 steps, check = yes
  max neighbors/atom: 2000, page size: 100000
  master list distance cutoff = 5.4
  ghost atom cutoff = 5.4
  binsize = 2.7, bins = 5 5 5
  1 neighbor lists, perpetual/occasional/extra = 1 0 0
  (1) pair eam/fs, perpetual
      attributes: half, newton on
      pair build: half/bin/atomonly/newton
      stencil: half/bin/3d
      bin: standard
Per MPI rank memory allocation (min/avg/max) = 5.46 | 5.46 | 5.46 Mbytes
   Step          Time           Temp        v_magnorm        PotEng         c_ske          v_etot    
         0                     0                  300    0.155361980793619    -527.557932950803          4.963589568    -517.669531858303
       500                  0.05     92.0744429188746    0.138462627025335    -522.244293725615     4.00875180272437    -517.669426141483
      1000                   0.1     194.262033074025   0.0780968849005478    -523.846914557652     5.52677029785693    -517.669502279327
      1500                  0.15     218.972184591782   0.0850676509349223    -521.865227892934     4.58904532749117     -517.66943342183
      2000                   0.2     241.656088894424   0.0722154966938741        -521.65965972     5.22716245813669    -517.669473929462
      2500                  0.25     299.682082095163   0.0865023460438654    -521.248714651583     4.53334423466039    -517.669459490725
      3000                   0.3     351.210214472517   0.0940268721158056    -521.166329259798     4.49148742351566    -517.669457104256
      3500                  0.35     371.042348819533   0.0922008369967361    -521.504894286954     5.70943331622987    -517.669473736226
      4000                   0.4     288.970020949375   0.0798357693403827     -520.81399820914     4.90809468602426     -517.66943707754
      4500                  0.45     257.123471081937   0.0873005362597253    -521.468320762016      5.1520139485348    -517.669479926942
      5000                   0.5     256.569392564301    0.106144560348193    -520.804329277238     4.50502627731242    -517.669444428573
      5500                  0.55     388.737736770166   0.0657638267996201    -522.856058247756     5.02702799739716    -517.669476337411
      6000                   0.6     248.346778341637   0.0353640846252079    -520.666117476458     4.94935978425896    -517.669456919632
      6500                  0.65     347.032821148012   0.0636383872097678    -521.853703108766     5.02412082963583    -517.669459508579
      7000                   0.7     328.886772460361    0.110612471546065    -521.646074639243     4.84126783458979    -517.669469161294
      7500                  0.75     224.665646500759    0.151978127086373    -520.220184582886     4.05200984481518    -517.669452258572
      8000                   0.8     326.018478558115    0.147967606128095    -522.046266033733     4.91400899099272    -517.669471242864
      8500                  0.85     276.525085558204   0.0822529147538198    -521.055512778701     5.11837031685577     -517.66945316198
      9000                   0.9     336.244770206639    0.102850233494479    -521.556616787805     5.12803383514237    -517.669462114163
      9500                  0.95     304.053639736092    0.107961114147276    -520.965523922622     4.75231496323062    -517.669462688958
     10000                     1     344.732891056438    0.079572667326703    -521.170509381065     4.45366311457385    -517.669458967058
     10500                  1.05     247.878613450903   0.0450710659707311    -520.148942672764     5.05029549602833     -517.66945987358
     11000                   1.1     380.444983267931    0.050496615670191    -522.051962595221     5.45864620115847    -517.669455746295
     11500                  1.15     254.113766275431   0.0587375234311287    -521.037406453977     5.12941557340268    -517.669463696672
     12000                   1.2     337.306110130793   0.0596288085478014    -521.956497760015     4.54378191408167    -517.669462876162
     12500                  1.25     274.346590770448    0.071079458169434    -520.959502759145     4.76891369998657    -517.669460638816
     13000                   1.3     335.092626020045   0.0593219158544857    -521.779039903891     5.29388707348285    -517.669462896172
     13500                  1.35     296.378768699898   0.0706083646540128    -520.861869671291     5.11876951835601    -517.669453714979
     14000                   1.4     255.298707365481   0.0928124259821038    -520.194066341548      4.8774178272269    -517.669459746003
     14500                  1.45     337.214801878381    0.070686580881006    -521.687956625091     4.84053036955991    -517.669458215239
     15000                   1.5     297.447713256632   0.0614561709492901     -521.91372708106     5.11591918615864    -517.669465893842
     15500                  1.55     249.639999953852   0.0973258287031022    -520.965632514717     5.03171093164028     -517.66945637259
     16000                   1.6     313.773859065499    0.142425553085424    -521.794109896694      4.9219736925531    -517.669462746432
     16500                  1.65     277.185211855841   0.0994317755012003    -521.065948797797     4.75840707807593    -517.669459826736
     17000                   1.7     299.927949498914   0.0597284194741554    -521.676728850222     4.81254761306825    -517.669464134763
     17500                  1.75     290.470548921763   0.0737313555137705    -521.155073966128     5.16517070601847     -517.66945711515
     18000                   1.8      333.51740765956   0.0579951891594471    -521.551261316867     5.42099447074696    -517.669461004387
     18500                  1.85     288.490979377628   0.0298231373252601    -521.422223466598     4.84691831115136    -517.669461105166
     19000                   1.9     324.885672044882   0.0340664338382475    -521.859963441634     4.76171577635599    -517.669464126377
     19500                  1.95     239.064773474268   0.0336483941203689     -520.18287379788     4.79342086203357    -517.669456359121
     20000                     2     332.813962506228    0.042192316630334    -521.331257667811     4.95679872402705    -517.669456598034
Loop time of 0.965201 on 4 procs for 20000 steps with 128 atoms

Performance: 179.030 ns/day, 0.134 hours/ns, 20721.079 timesteps/s, 2.652 Matom-step/s
95.3% CPU use with 4 MPI tasks x no OpenMP threads

MPI task timing breakdown:
Section |  min time  |  avg time  |  max time  |%varavg| %total
---------------------------------------------------------------
Pair    | 0.42032    | 0.42999    | 0.43439    |   0.9 | 44.55
Neigh   | 0.0062977  | 0.0063787  | 0.0064694  |   0.1 |  0.66
Comm    | 0.42778    | 0.43182    | 0.4399     |   0.7 | 44.74
Output  | 0.00073479 | 0.00079311 | 0.00095571 |   0.0 |  0.08
Modify  | 0.077541   | 0.07878    | 0.079846   |   0.4 |  8.16
Other   |            | 0.01744    |            |       |  1.81

Nlocal:             32 ave          34 max          30 min
Histogram: 2 0 0 0 0 0 0 0 0 2
Nghost:            431 ave         433 max         429 min
Histogram: 2 0 0 0 0 0 0 0 0 2
Neighs:            928 ave        1049 max         844 min
Histogram: 1 0 1 1 0 0 0 0 0 1

Total # of neighbors = 3712
Ave neighs/atom = 29
Neighbor list builds = 270
Dangerous builds = 0
Total wall time: 0:00:00
