    atom_style      full
    bond_style      harmonic
    angle_style     charmm
    dihedral_style  charmm
    improper_style  harmonic

    pair_style      lj/charmm/coul/long 8 10
    pair_modify     mix arithmetic
    kspace_style    pppm 1e-4

