log eam.log
dimension 3
boundary p p p
units metal
atom_style atomic
lattice fcc 3.5
read_data examples/eco_force/sigma5.lammps
pair_style eam/fs
pair_coeff * * examples/eco_force/Ni.eam.fs Ni
timestep 0.001
thermo 100
fix integrator all npt temp 750 750 0.1 iso 0 0 0.1
fix eco all eco/force 0.08 0.25 3.6 examples/eco_force/sigma5.ori
velocity all create 750 1
dump save all custom 100 nidata_eam.dump xs ys zs f_eco[1] f_eco[2]
dump_modify save sort id
run 1000