units		electron
atom_style	atomic
atom_modify map yes
boundary	p p p

region mybox block -5.0 5.0 -5.0 5.0 -5.0 5.0
create_box 1 mybox
create_atoms 1 single 0.0 0.0 0.0 units box
pair_style zero 2.0 nocoeff
pair_coeff * *
mass		1 1.0

fix 2 all spring/self 1.0 xyz
fix_modify 2 energy yes
velocity all set 0.1 0.1 0.1

fix 1 all ipi lmp 9909 unix reset

run		10000000
